     Program PWSCF v.5.0.2 (svn rev. 9656) starts on  3Aug2015 at 18:15:38

     Current dimensions of program PWSCF are:
     Max number of different atomic species (ntypx) = 10
     Max number of k-points (npk) =  40000
     Max angular momentum in pseudopotentials (lmaxx) =  3
     Reading input from Fe_100_2x2_CO_hollow_O_SB_scf.in
Warning: card  &IONS ignored
Warning: card  / ignored
Warning: card  &CELL ignored
Warning: card    PRESS=0.0 ignored
Warning: card    PRESS_CONV_THR=0.1 ignored
Warning: card  / ignored

     IMPORTANT: XC functional enforced from input :
     Exchange-correlation      = PBE ( 1 4 3 4 0)
     EXX-fraction              =        0.00
     Any further DFT definition will be discarded
     Please, verify this is what you really want

               file Fe.pbe-spn-kjpaw_psl.0.2.1.UPF: wavefunction(s)  3D renormalized
               file C.pbe-n-kjpaw_psl.0.1.upf: wavefunction(s)  2P renormalized
               file O.pbe-n-kjpaw_psl.0.1.UPF: wavefunction(s)  2P renormalized

   Task Groups are in USE
   groups and procs/group :     2    6

     bravais-lattice index     =            0
     lattice parameter (alat)  =       1.8897  a.u.
     unit-cell volume          =    3898.2644 (a.u.)^3
     number of atoms/cell      =           23
     number of atomic types    =            3
     number of electrons       =       336.00
     number of Kohn-Sham states=          202
     kinetic-energy cutoff     =      95.0000  Ry
     charge density cutoff     =     800.0000  Ry
     convergence threshold     =      1.0E-08
     mixing beta               =       0.5000
     number of iterations used =            8  local-TF  mixing
     Exchange-correlation      = PBE ( 1 4 3 4 0)
     EXX-fraction              =        0.00

     celldm(1)=   1.889727  celldm(2)=   0.000000  celldm(3)=   0.000000
     celldm(4)=   0.000000  celldm(5)=   0.000000  celldm(6)=   0.000000

     crystal axes: (cart. coord. in units of alat)
               a(1) = (   5.665012   0.000000   0.000000 )
               a(2) = (   0.000000   5.665012   0.000000 )
               a(3) = (   0.000000   0.000000  18.000000 )

     reciprocal axes: (cart. coord. in units 2 pi/alat)
               b(1) = (  0.176522 -0.000000  0.000000 )
               b(2) = (  0.000000  0.176522  0.000000 )
               b(3) = (  0.000000  0.000000  0.055556 )

     PseudoPot. # 1 for Fe read from file:
     /work/e05/e05/ablar/QE_PSEUDO/Fe.pbe-spn-kjpaw_psl.0.2.1.UPF
     MD5 check sum: a0a08122d52b112de96d1da1d7dd020f
     Pseudo is Projector augmented-wave + core cor, Zval = 16.0
     Generated using "atomic" code by A. Dal Corso  v.5.0.2 svn rev. 9415
     Shape of augmentation charge: PSQ
     Using radial grid of 1191 points,  6 beta functions with:
                l(1) =   0
                l(2) =   0
                l(3) =   1
                l(4) =   1
                l(5) =   2
                l(6) =   2
     Q(r) pseudized with 0 coefficients

     PseudoPot. # 2 for  C read from file:
     /work/e05/e05/ablar/QE_PSEUDO/C.pbe-n-kjpaw_psl.0.1.upf
     MD5 check sum: 430fe95172b1e11ef3f8ed03bac87931
     Pseudo is Projector augmented-wave + core cor, Zval =  4.0
     Generated using "atomic" code by A. Dal Corso  v.5.0.99 svn rev. 10869
     Shape of augmentation charge: BESSEL
     Using radial grid of 1073 points,  4 beta functions with:
                l(1) =   0
                l(2) =   0
                l(3) =   1
                l(4) =   1
     Q(r) pseudized with 0 coefficients

     PseudoPot. # 3 for  O read from file:
     /work/e05/e05/ablar/QE_PSEUDO/O.pbe-n-kjpaw_psl.0.1.UPF
     MD5 check sum: 1d826bf4880e2aee2c3af49d0719521d
     Pseudo is Projector augmented-wave + core cor, Zval =  6.0
     Generated using "atomic" code by A. Dal Corso  v.5.0.2 svn rev. 9415
     Shape of augmentation charge: BESSEL
     Using radial grid of 1095 points,  4 beta functions with:
                l(1) =   0
                l(2) =   0
                l(3) =   1
                l(4) =   1
     Q(r) pseudized with 0 coefficients

     atomic species   valence    mass     pseudopotential
        Fe            16.00    55.85000     Fe( 1.00)
        C              4.00    12.00000      C( 1.00)
        O              6.00    16.00000      O( 1.00)

     Starting magnetic structure
     atomic species   magnetization
        Fe           0.600
        C            0.000
        O            0.000

     Simplified LDA+U calculation (l_max = 2) with parameters (eV):
     atomic species    L          U    alpha       J0     beta
        Fe             2     0.0000   0.0000   0.0000   0.0000

     No symmetry found

                                    s                        frac. trans.

      isym =  1     identity

 cryst.   s( 1) = (     1          0          0      )
                  (     0          1          0      )
                  (     0          0          1      )

 cart.    s( 1) = (  1.0000000  0.0000000  0.0000000 )
                  (  0.0000000  1.0000000  0.0000000 )
                  (  0.0000000  0.0000000  1.0000000 )

     point group C_1 (1)
     there are  1 classes
     the character table:

       E
A      1.00

     the symmetry operations in each class:
     E        1

   Cartesian axes

     site n.     atom                  positions (alat units)
         1           Fe  tau(   1) = (   0.0000000   0.0000000  -2.8324989  )
         2           Fe  tau(   2) = (   0.0000000   2.8325089  -2.8324989  )
         3           Fe  tau(   3) = (   2.8325089   0.0000000  -2.8324989  )
         4           Fe  tau(   4) = (   2.8324989   2.8325089  -2.8324989  )
         5           Fe  tau(   5) = (   1.4162494   1.4162494  -1.4162594  )
         6           Fe  tau(   6) = (   1.4162494  -1.4162494  -1.4162594  )
         7           Fe  tau(   7) = (  -1.4162494   1.4162494  -1.4162594  )
         8           Fe  tau(   8) = (  -1.4162494  -1.4162494  -1.4162594  )
         9           Fe  tau(   9) = (   0.0000000   0.0000000   0.0000000  )
        10           Fe  tau(  10) = (   0.0000000   2.8324989   0.0000000  )
        11           Fe  tau(  11) = (   2.8324989   0.0000000   0.0000000  )
        12           Fe  tau(  12) = (   2.8324989   2.8324989   0.0000000  )
        13           Fe  tau(  13) = (   1.4164700   1.4163377   1.4125327  )
        14           Fe  tau(  14) = (   1.4247313  -1.4161856   1.4411260  )
        15           Fe  tau(  15) = (  -1.4132529   1.4163337   1.4305513  )
        16           Fe  tau(  16) = (  -1.4159108  -1.4161479   1.3607085  )
        17           Fe  tau(  17) = (   0.0144124   0.0022692   2.8917071  )
        18           Fe  tau(  18) = (   0.0143122   2.8304963   2.8915719  )
        19           Fe  tau(  19) = (   2.8484828  -0.0249946   2.9192513  )
        20           Fe  tau(  20) = (   2.8487697   2.8580040   2.9192916  )
        21           C   tau(  21) = (   1.2427884   1.4162996   3.4375547  )
        22           O   tau(  22) = (   2.2232109   1.4169911   4.3292646  )
        23           O   tau(  23) = (  -1.3103742   4.2489687   3.4182272  )

   Crystallographic axes

     site n.     atom                  positions (cryst. coord.)
         1           Fe  tau(   1) = (  0.0000000  0.0000000 -0.1573610  )
         2           Fe  tau(   2) = ( -0.0000000  0.5000005 -0.1573610  )
         3           Fe  tau(   3) = (  0.5000005  0.0000000 -0.1573610  )
         4           Fe  tau(   4) = (  0.4999987  0.5000005 -0.1573610  )
         5           Fe  tau(   5) = (  0.2499994  0.2499994 -0.0786811  )
         6           Fe  tau(   6) = (  0.2499994 -0.2499994 -0.0786811  )
         7           Fe  tau(   7) = ( -0.2499994  0.2499994 -0.0786811  )
         8           Fe  tau(   8) = ( -0.2499994 -0.2499994 -0.0786811  )
         9           Fe  tau(   9) = (  0.0000000  0.0000000  0.0000000  )
        10           Fe  tau(  10) = ( -0.0000000  0.4999987  0.0000000  )
        11           Fe  tau(  11) = (  0.4999987  0.0000000  0.0000000  )
        12           Fe  tau(  12) = (  0.4999987  0.4999987  0.0000000  )
        13           Fe  tau(  13) = (  0.2500383  0.2500150  0.0784740  )
        14           Fe  tau(  14) = (  0.2514966 -0.2499881  0.0800626  )
        15           Fe  tau(  15) = ( -0.2494704  0.2500142  0.0794751  )
        16           Fe  tau(  16) = ( -0.2499396 -0.2499814  0.0755949  )
        17           Fe  tau(  17) = (  0.0025441  0.0004006  0.1606504  )
        18           Fe  tau(  18) = (  0.0025264  0.4996452  0.1606429  )
        19           Fe  tau(  19) = (  0.5028203 -0.0044121  0.1621806  )
        20           Fe  tau(  20) = (  0.5028709  0.5045010  0.1621829  )
        21           C   tau(  21) = (  0.2193797  0.2500082  0.1909753  )
        22           O   tau(  22) = (  0.3924459  0.2501303  0.2405147  )
        23           O   tau(  23) = ( -0.2313100  0.7500370  0.1899015  )

     number of k points=    20  Marzari-Vanderbilt smearing, width (Ry)=  0.0400
                       cart. coord. in units 2pi/alat
        k(    1) = (   0.0000000   0.0000000   0.0000000), wk =   0.0625000
        k(    2) = (   0.0000000   0.0441305   0.0000000), wk =   0.1250000
        k(    3) = (   0.0000000  -0.0882611   0.0000000), wk =   0.0625000
        k(    4) = (   0.0441305   0.0441305   0.0000000), wk =   0.1250000
        k(    5) = (   0.0441305  -0.0882611   0.0000000), wk =   0.1250000
        k(    6) = (  -0.0882611  -0.0882611   0.0000000), wk =   0.0625000
        k(    7) = (   0.0441305  -0.0000000   0.0000000), wk =   0.1250000
        k(    8) = (  -0.0882611   0.0000000   0.0000000), wk =   0.0625000
        k(    9) = (  -0.0441305   0.0441305   0.0000000), wk =   0.1250000
        k(   10) = (  -0.0882611   0.0441305   0.0000000), wk =   0.1250000
        k(   11) = (   0.0000000   0.0000000   0.0000000), wk =   0.0625000
        k(   12) = (   0.0000000   0.0441305   0.0000000), wk =   0.1250000
        k(   13) = (   0.0000000  -0.0882611   0.0000000), wk =   0.0625000
        k(   14) = (   0.0441305   0.0441305   0.0000000), wk =   0.1250000
        k(   15) = (   0.0441305  -0.0882611   0.0000000), wk =   0.1250000
        k(   16) = (  -0.0882611  -0.0882611   0.0000000), wk =   0.0625000
        k(   17) = (   0.0441305  -0.0000000   0.0000000), wk =   0.1250000
        k(   18) = (  -0.0882611   0.0000000   0.0000000), wk =   0.0625000
        k(   19) = (  -0.0441305   0.0441305   0.0000000), wk =   0.1250000
        k(   20) = (  -0.0882611   0.0441305   0.0000000), wk =   0.1250000

                       cryst. coord.
        k(    1) = (   0.0000000   0.0000000   0.0000000), wk =   0.0625000
        k(    2) = (   0.0000000   0.2500000   0.0000000), wk =   0.1250000
        k(    3) = (   0.0000000  -0.5000000   0.0000000), wk =   0.0625000
        k(    4) = (   0.2500000   0.2500000   0.0000000), wk =   0.1250000
        k(    5) = (   0.2500000  -0.5000000   0.0000000), wk =   0.1250000
        k(    6) = (  -0.5000000  -0.5000000   0.0000000), wk =   0.0625000
        k(    7) = (   0.2500000   0.0000000   0.0000000), wk =   0.1250000
[...]
     1.0068   1.0102   1.0135   1.0201   1.0214   1.0326   1.0356   1.0368
     1.0383   1.0444   1.0466   1.0580   1.0655   1.0692   1.0718   1.0771
     1.0797   1.0647   1.0570   0.7673   0.7374   0.5409   0.4174   0.2984
     0.2847   0.1311   0.1224   0.1025   0.0770   0.0400   0.0347   0.0344
     0.0158   0.0028   0.0023   0.0020   0.0009   0.0007   0.0005   0.0002
     0.0002   0.0002   0.0001   0.0001   0.0001   0.0000   0.0000   0.0000
     0.0000   0.0000   0.0000   0.0000   0.0000   0.0000   0.0000   0.0000
     0.0000   0.0000   0.0000   0.0000   0.0000   0.0000   0.0000   0.0000
     0.0000   0.0000   0.0000   0.0000   0.0000   0.0000   0.0000   0.0000
     0.0000   0.0000   0.0000   0.0000   0.0000   0.0000   0.0000   0.0000
     0.0000   0.0000

     the Fermi energy is     5.2872 ev

!    total energy              =   -6686.60068544 Ry
     Harris-Foulkes estimate   =   -6686.60068543 Ry
     estimated scf accuracy    <          5.9E-09 Ry

     total all-electron energy =    -51287.989281 Ry

     The total energy is the sum of the following terms:

     one-electron contribution =  -26409.05720030 Ry
     hartree contribution      =   13270.77547377 Ry
     xc contribution           =    -715.32385473 Ry
     ewald contribution        =    8715.60095176 Ry
     Hubbard energy            =       0.00000000 Ry
     one-center paw contrib.   =   -1548.68623588 Ry
     smearing contrib. (-TS)   =       0.09017995 Ry

     total magnetization       =    50.05 Bohr mag/cell
     absolute magnetization    =    52.86 Bohr mag/cell

     convergence has been achieved in  29 iterations

     Forces acting on atoms (Ry/au):

     negative rho (up, down):  0.760E-04 0.121E-02
     atom    1 type  1   force =     0.00010576    0.00011833    0.00362260
     atom    2 type  1   force =     0.00010528   -0.00012047    0.00362321
     atom    3 type  1   force =    -0.00038070    0.00000321    0.00398811
     atom    4 type  1   force =    -0.00037843   -0.00000430    0.00399025
     atom    5 type  1   force =     0.00081298    0.00000201   -0.00714700
     atom    6 type  1   force =     0.00012784   -0.00000248   -0.00585238
     atom    7 type  1   force =    -0.00031388    0.00000163   -0.00661853
     atom    8 type  1   force =     0.00160923   -0.00000214   -0.01042026
     atom    9 type  1   force =     0.00304650    0.00007542    0.00291727
     atom   10 type  1   force =     0.00304812   -0.00005208    0.00291117
     atom   11 type  1   force =    -0.00383741    0.00375055    0.00448227
     atom   12 type  1   force =    -0.00383029   -0.00371823    0.00448102
     atom   13 type  1   force =    -0.00001976    0.00001374    0.00004480
     atom   14 type  1   force =     0.00000884    0.00000240    0.00001952
     atom   15 type  1   force =    -0.00001144   -0.00000910    0.00002174
     atom   16 type  1   force =    -0.00001427   -0.00000286    0.00002343
     atom   17 type  1   force =    -0.00003869   -0.00000723   -0.00001851
     atom   18 type  1   force =    -0.00000232   -0.00001972   -0.00001795
     atom   19 type  1   force =     0.00003564   -0.00001243    0.00001447
     atom   20 type  1   force =     0.00000521   -0.00002015    0.00000493
     atom   21 type  2   force =    -0.00003893    0.00002839   -0.00002760
     atom   22 type  3   force =    -0.00005300   -0.00002956   -0.00001447
     atom   23 type  3   force =     0.00001373    0.00000507   -0.00002808
     The non-local contrib.  to forces
     atom    1 type  1   force =     0.00115875    0.00040712   -0.39123676
     atom    2 type  1   force =     0.00115842   -0.00041011   -0.39123846
     atom    3 type  1   force =    -0.00156992    0.00299263   -0.39128688
     atom    4 type  1   force =    -0.00157169   -0.00299544   -0.39129112
     atom    5 type  1   force =    -0.00063998   -0.00000499   -0.03282646
     atom    6 type  1   force =     0.00099495   -0.00000043   -0.03624778
     atom    7 type  1   force =     0.00093317   -0.00000456   -0.03449094
     atom    8 type  1   force =    -0.00334963    0.00000005   -0.03945988
     atom    9 type  1   force =    -0.00513381   -0.00000930    0.00192374
     atom   10 type  1   force =    -0.00513068   -0.00001940    0.00190973
     atom   11 type  1   force =     0.00392189   -0.00445337   -0.00264801
     atom   12 type  1   force =     0.00392006    0.00442451   -0.00264968
     atom   13 type  1   force =    -0.02482577   -0.00001093    0.19137321
     atom   14 type  1   force =    -0.00918353    0.00000303    0.00875616
     atom   15 type  1   force =     0.00564986    0.00001929    0.03225942
     atom   16 type  1   force =     0.02502872    0.00000371    0.23593383
     atom   17 type  1   force =    -0.03272528   -0.03059814    0.23202732
     atom   18 type  1   force =    -0.03266560    0.03074386    0.23223588
     atom   19 type  1   force =     0.00450778    0.03453682    0.33254167
     atom   20 type  1   force =     0.00435989   -0.03437677    0.33213162
     atom   21 type  2   force =     0.60260152    0.00043674    0.22779009
     atom   22 type  3   force =    -1.10452897   -0.00065917   -1.84405672
     atom   23 type  3   force =     0.05837119   -0.00011556   -0.99622326
     The ionic contribution  to forces
     atom    1 type  1   force =     0.03840892    0.02703226 -265.93034467
     atom    2 type  1   force =     0.03820068   -0.02705374 -265.93010674
     atom    3 type  1   force =    -0.03823335    0.02996227 -265.92548763
     atom    4 type  1   force =    -0.03794013   -0.02998365 -265.92523367
     atom    5 type  1   force =     0.02262713    0.00009837 -148.06730772
     atom    6 type  1   force =    -0.00707685   -0.00030156 -147.86757173
     atom    7 type  1   force =    -0.02552266    0.00030006 -147.97415981
     atom    8 type  1   force =    -0.00036371   -0.00054053 -148.77485938
     atom    9 type  1   force =     0.65335086    0.36978553  -15.23473930
     atom   10 type  1   force =     0.65297557   -0.36759343  -15.23604549
     atom   11 type  1   force =    -0.60036656    0.59476889  -15.07241739
     atom   12 type  1   force =    -0.60010857   -0.59271177  -15.07237850
     atom   13 type  1   force =     0.83471095    0.00136024  111.87160424
     atom   14 type  1   force =    -0.10930129   -0.00093743  119.50929325
     atom   15 type  1   force =    -0.43830645   -0.00282653  119.13010427
     atom   16 type  1   force =    -0.01124275    0.00216288  108.16536916
     atom   17 type  1   force =    -0.25793792   -0.14056849  243.55002712
     atom   18 type  1   force =    -0.25111158    0.13820177  243.54348442
     atom   19 type  1   force =     0.54115096   -2.48291835  241.21697756
     atom   20 type  1   force =     0.53202118    2.47898567  241.21290650
     atom   21 type  2   force =    -3.40430004   -0.00027984   67.79794438
     atom   22 type  3   force =     2.75102456    0.00037739  113.01404808
     atom   23 type  3   force =    -0.28265895    0.00267999  107.99889304
     The local contribution  to forces
     atom    1 type  1   force =    -0.03933230   -0.02725877  266.33814724
     atom    2 type  1   force =    -0.03912395    0.02728199  266.33791099
     atom    3 type  1   force =     0.03937293   -0.03288135  266.33377874
     atom    4 type  1   force =     0.03908362    0.03290495  266.33353181
     atom    5 type  1   force =    -0.02139079   -0.00009128  148.09338181
     atom    6 type  1   force =     0.00617494    0.00029887  147.89860305
     atom    7 type  1   force =     0.02429641   -0.00029381  148.00244694
     atom    8 type  1   force =     0.00539670    0.00053736  148.80396348
     atom    9 type  1   force =    -0.64518915   -0.36957912   15.23552319
     atom   10 type  1   force =    -0.64481463    0.36743605   15.23683680
     atom   11 type  1   force =     0.59252885   -0.58643742   15.07901179
     atom   12 type  1   force =     0.59227929    0.58443800   15.07897384
     atom   13 type  1   force =    -0.80933194   -0.00133504 -112.06465796
     atom   14 type  1   force =     0.11896377    0.00093662 -119.51817228
     atom   15 type  1   force =     0.43212013    0.00279813 -119.16309168
     atom   16 type  1   force =    -0.01477155   -0.00217201 -108.41440951
     atom   17 type  1   force =     0.30055660    0.18253387 -243.79281669
     atom   18 type  1   force =     0.29369907   -0.18033726 -243.78648376
     atom   19 type  1   force =    -0.54704987    2.44844069 -241.56476744
     atom   20 type  1   force =    -0.53779500   -2.44469495 -241.56030472
     atom   21 type  2   force =     2.81276166   -0.00011983  -68.02260754
     atom   22 type  3   force =    -1.65650467    0.00024596 -111.18782274
     atom   23 type  3   force =     0.22470875   -0.00256060 -107.01353854
     The core correction contribution to forces
     atom    1 type  1   force =    -0.00013442   -0.00006198   -0.01275489
     atom    2 type  1   force =    -0.00013472    0.00006111   -0.01275447
     atom    3 type  1   force =     0.00004365   -0.00007068   -0.01282578
     atom    4 type  1   force =     0.00004396    0.00006990   -0.01282562
     atom    5 type  1   force =     0.00021388   -0.00000005   -0.00025703
     atom    6 type  1   force =     0.00003294    0.00000026   -0.00049873
     atom    7 type  1   force =    -0.00002862   -0.00000020   -0.00027750
     atom    8 type  1   force =    -0.00008219    0.00000068    0.00007012
     atom    9 type  1   force =     0.00002144   -0.00011390    0.00031029
     atom   10 type  1   force =     0.00002096    0.00011702    0.00031068
     atom   11 type  1   force =     0.00006556   -0.00012277    0.00064643
     atom   12 type  1   force =     0.00006582    0.00012595    0.00064608
     atom   13 type  1   force =    -0.00056173   -0.00000027    0.00188205
     atom   14 type  1   force =    -0.00045097   -0.00000025    0.00027682
     atom   15 type  1   force =     0.00050059   -0.00000006    0.00088398
     atom   16 type  1   force =     0.00094027    0.00000245    0.01325069
     atom   17 type  1   force =    -0.00990305   -0.01134389    0.01074786
     atom   18 type  1   force =    -0.00989560    0.01134109    0.01075029
     atom   19 type  1   force =     0.00139774   -0.00006718    0.01524336
     atom   20 type  1   force =     0.00139024    0.00006103    0.01525157
     atom   21 type  2   force =    -0.01111181   -0.00000880   -0.00315527
     atom   22 type  3   force =     0.00993329    0.00000627    0.01777366
     atom   23 type  3   force =    -0.00042430    0.00000112    0.01083869
     The Hubbard contrib.    to forces
     atom    1 type  1   force =     0.00000000    0.00000000   -0.00000000
     atom    2 type  1   force =     0.00000000   -0.00000000   -0.00000000
     atom    3 type  1   force =    -0.00000000   -0.00000000   -0.00000000
     atom    4 type  1   force =    -0.00000000    0.00000000   -0.00000000
     atom    5 type  1   force =    -0.00000000   -0.00000000    0.00000000
     atom    6 type  1   force =     0.00000000   -0.00000000    0.00000000
     atom    7 type  1   force =    -0.00000000   -0.00000000   -0.00000000
     atom    8 type  1   force =     0.00000000   -0.00000000   -0.00000000
     atom    9 type  1   force =     0.00000000    0.00000000   -0.00000000
     atom   10 type  1   force =     0.00000000   -0.00000000   -0.00000000
     atom   11 type  1   force =    -0.00000000    0.00000000   -0.00000000
     atom   12 type  1   force =    -0.00000000   -0.00000000   -0.00000000
     atom   13 type  1   force =    -0.00000000    0.00000000    0.00000000
     atom   14 type  1   force =     0.00000000    0.00000000   -0.00000000
     atom   15 type  1   force =    -0.00000000    0.00000000   -0.00000000
     atom   16 type  1   force =     0.00000000   -0.00000000   -0.00000000
     atom   17 type  1   force =     0.00000000    0.00000000    0.00000000
     atom   18 type  1   force =     0.00000000   -0.00000000    0.00000000
     atom   19 type  1   force =    -0.00000000    0.00000000    0.00000000
     atom   20 type  1   force =    -0.00000000   -0.00000000    0.00000000
     atom   21 type  2   force =     0.00000000    0.00000000    0.00000000
     atom   22 type  3   force =    -0.00000000   -0.00000000    0.00000000
     atom   23 type  3   force =    -0.00000000   -0.00000000    0.00000000
     The SCF correction term to forces
     atom    1 type  1   force =     0.00000000    0.00000000    0.00000000
     atom    2 type  1   force =     0.00000000    0.00000000    0.00000000
     atom    3 type  1   force =     0.00000000    0.00000000    0.00000000
     atom    4 type  1   force =     0.00000000    0.00000000    0.00000000
     atom    5 type  1   force =     0.00000000    0.00000000    0.00000000
     atom    6 type  1   force =     0.00000000    0.00000000    0.00000000
     atom    7 type  1   force =     0.00000000    0.00000000    0.00000000
     atom    8 type  1   force =     0.00000000    0.00000000    0.00000000
     atom    9 type  1   force =     0.00000000    0.00000000    0.00000000
     atom   10 type  1   force =     0.00000000    0.00000000    0.00000000
     atom   11 type  1   force =     0.00000000    0.00000000    0.00000000
     atom   12 type  1   force =     0.00000000    0.00000000    0.00000000
     atom   13 type  1   force =    -0.00001653   -0.00000035   -0.00012342
     atom   14 type  1   force =    -0.00002441    0.00000032   -0.00010113
     atom   15 type  1   force =     0.00001916   -0.00000004   -0.00010093
     atom   16 type  1   force =     0.00002578    0.00000001   -0.00008743
     atom   17 type  1   force =    -0.00003432   -0.00003069    0.00002918
     atom   18 type  1   force =    -0.00003388    0.00003074    0.00002854
     atom   19 type  1   force =     0.00002376   -0.00000450    0.00005264
     atom   20 type  1   force =     0.00002363    0.00000477    0.00005328
     atom   21 type  2   force =     0.00000448    0.00000003    0.00003405
     atom   22 type  3   force =     0.00001752   -0.00000010    0.00007656
     atom   23 type  3   force =     0.00001178    0.00000003    0.00003531

     Total force =     0.000131     Total SCF correction =     0.000258
     SCF correction compared to forces is large: reduce conv_thr to get better values

     entering subroutine stress ...

     negative rho (up, down):  0.760E-04 0.121E-02
          total   stress  (Ry/bohr**3)                   (kbar)     P=  -15.79
  -0.00014983   0.00000003  -0.00000091        -22.04      0.01     -0.13
   0.00000003  -0.00017287  -0.00000008          0.01    -25.43     -0.01
  -0.00000091  -0.00000008   0.00000066         -0.13     -0.01      0.10

     kinetic stress (kbar)  32827.29     -0.03    -14.68
                               -0.03  32838.59     -0.06
                              -14.68     -0.06  32763.90

     local   stress (kbar)-880945.09     -1.05    -52.73
                               -1.05-881511.25      0.98
                              -52.73      0.98 931529.81

     nonloc. stress (kbar) -24605.79     -0.01     -8.19
                               -0.01 -24605.03      0.03
                               -8.19      0.03 -24538.32

     hartree stress (kbar) 465408.63      0.37    -17.82
                                0.37 465667.48     -0.39
                              -17.82     -0.39-430289.62

     exc-cor stress (kbar)  -1185.76      0.00      1.12
                                0.00  -1186.58     -0.00
                                1.12     -0.00  -1192.84

     corecor stress (kbar)  -6639.01      0.00     -0.16
                                0.00  -6638.41     -0.00
                               -0.16     -0.00  -6637.64

     ewald   stress (kbar) 415117.70      0.72     92.33
                                0.72 415409.76     -0.58
                               92.33     -0.58-501635.21

     hubbard stress (kbar)     -0.00      0.00     -0.00
                                0.00     -0.00      0.00
                               -0.00      0.00     -0.00

     london  stress (kbar)      0.00      0.00      0.00
                                0.00      0.00      0.00
                                0.00      0.00      0.00

     dft-nl  stress (kbar)      0.00      0.00      0.00
                                0.00      0.00      0.00
                                0.00      0.00      0.00

     Writing output data file Fe_100_2x2_CO_hollow_O_SB.save

     General routines

     Parallel routines
     Hubbard U routines

     PAW routines

   This run was terminated on:  19: 4:57   3Aug2015

   JOB DONE.
Application 16675033 resources: utime ~137276s, stime ~4549s, Rss ~666008, inblocks ~6400451861, outblocks ~1024549662