     Program PWSCF v.5.0.2 (svn rev. 9656) starts on  4Aug2015 at 11:11:44

     Current dimensions of program PWSCF are:
     Max number of different atomic species (ntypx) = 10
     Max number of k-points (npk) =  40000
     Max angular momentum in pseudopotentials (lmaxx) =  3
     Reading input from Fe_110_2x2_SB_HO_LB_H_scf.in
Warning: card  &IONS ignored
Warning: card  / ignored
Warning: card  &CELL ignored
Warning: card    PRESS=0.0 ignored
Warning: card    PRESS_CONV_THR=0.1 ignored
Warning: card  / ignored

     IMPORTANT: XC functional enforced from input :
     Exchange-correlation      = PBE ( 1 4 3 4 0)
     EXX-fraction              =        0.00
     Any further DFT definition will be discarded
     Please, verify this is what you really want

               file Fe.pbe-spn-kjpaw_psl.0.2.1.UPF: wavefunction(s)  3D renormalized
               file O.pbe-n-kjpaw_psl.0.1.UPF: wavefunction(s)  2P renormalized
               file H.pbe-kjpaw_psl.0.1.upf: wavefunction(s)  1S renormalized

   Task Groups are in USE
   groups and procs/group :     2    6

     bravais-lattice index     =            0
     lattice parameter (alat)  =       1.8897  a.u.
     unit-cell volume          =    3139.3349 (a.u.)^3
     number of atoms/cell      =           23
     number of atomic types    =            3
     number of electrons       =       328.00
     number of Kohn-Sham states=          202
     kinetic-energy cutoff     =      95.0000  Ry
     charge density cutoff     =     800.0000  Ry
     convergence threshold     =      1.0E-08
     mixing beta               =       0.5000
     number of iterations used =            8  local-TF  mixing
     Exchange-correlation      = PBE ( 1 4 3 4 0)
     EXX-fraction              =        0.00

     celldm(1)=   1.889727  celldm(2)=   0.000000  celldm(3)=   0.000000
     celldm(4)=   0.000000  celldm(5)=   0.000000  celldm(6)=   0.000000

     crystal axes: (cart. coord. in units of alat)
               a(1) = (   4.906044   0.000000   0.000000 )
               a(2) = (  -1.635348   4.625463   0.000000 )
               a(3) = (   0.000000   0.000000  20.500000 )

     reciprocal axes: (cart. coord. in units 2 pi/alat)
               b(1) = (  0.203830  0.072065  0.000000 )
               b(2) = (  0.000000  0.216195  0.000000 )
               b(3) = (  0.000000  0.000000  0.048780 )

     PseudoPot. # 1 for Fe read from file:
     /work/e05/e05/ablar/QE_PSEUDO/Fe.pbe-spn-kjpaw_psl.0.2.1.UPF
     MD5 check sum: a0a08122d52b112de96d1da1d7dd020f
     Pseudo is Projector augmented-wave + core cor, Zval = 16.0
     Generated using "atomic" code by A. Dal Corso  v.5.0.2 svn rev. 9415
     Shape of augmentation charge: PSQ
     Using radial grid of 1191 points,  6 beta functions with:
                l(1) =   0
                l(2) =   0
                l(3) =   1
                l(4) =   1
                l(5) =   2
                l(6) =   2
     Q(r) pseudized with 0 coefficients

     PseudoPot. # 2 for  O read from file:
     /work/e05/e05/ablar/QE_PSEUDO/O.pbe-n-kjpaw_psl.0.1.UPF
     MD5 check sum: 1d826bf4880e2aee2c3af49d0719521d
     Pseudo is Projector augmented-wave + core cor, Zval =  6.0
     Generated using "atomic" code by A. Dal Corso  v.5.0.2 svn rev. 9415
     Shape of augmentation charge: BESSEL
     Using radial grid of 1095 points,  4 beta functions with:
                l(1) =   0
                l(2) =   0
                l(3) =   1
                l(4) =   1
     Q(r) pseudized with 0 coefficients

     PseudoPot. # 3 for  H read from file:
     /work/e05/e05/ablar/QE_PSEUDO/H.pbe-kjpaw_psl.0.1.upf
     MD5 check sum: 94e484f906d9e9773b2f6e52662335b2
     Pseudo is Projector augmented-wave, Zval =  1.0
     Generated using "atomic" code by A. Dal Corso  v.5.0.99 svn rev. 10869
     Shape of augmentation charge: PSQ
     Using radial grid of  929 points,  2 beta functions with:
                l(1) =   0
                l(2) =   0
     Q(r) pseudized with 0 coefficients

     atomic species   valence    mass     pseudopotential
        Fe            16.00    55.85000     Fe( 1.00)
        O              6.00    16.00000      O( 1.00)
        H              1.00     1.00000      H( 1.00)

     Starting magnetic structure
     atomic species   magnetization
        Fe           0.600
        O            0.000
        H            0.000

     Simplified LDA+U calculation (l_max = 2) with parameters (eV):
     atomic species    L          U    alpha       J0     beta
        Fe             2     0.0000   0.0000   0.0000   0.0000

     No symmetry found

                                    s                        frac. trans.

      isym =  1     identity

 cryst.   s( 1) = (     1          0          0      )
                  (     0          1          0      )
                  (     0          0          1      )

 cart.    s( 1) = (  1.0000000  0.0000000  0.0000000 )
                  (  0.0000000  1.0000000  0.0000000 )
                  (  0.0000000  0.0000000  1.0000000 )

     point group C_1 (1)
     there are  1 classes
     the character table:

       E
A      1.00

     the symmetry operations in each class:
     E        1

   Cartesian axes

     site n.     atom                  positions (alat units)
         1           Fe  tau(   1) = (   0.0000000   0.0000000  -4.0057584  )
         2           Fe  tau(   2) = (  -0.8176697   2.3127291  -4.0057584  )
         3           Fe  tau(   3) = (   2.4530190   0.0000000  -4.0057584  )
         4           Fe  tau(   4) = (  -3.2706887   2.3127291  -4.0057584  )
         5           Fe  tau(   5) = (   0.8176697   1.1563595  -2.0028892  )
         6           Fe  tau(   6) = (  -0.8176697  -1.1563595  -2.0028892  )
         7           Fe  tau(   7) = (   1.6353494  -1.1563595  -2.0028892  )
         8           Fe  tau(   8) = (  -1.6353494   1.1563595  -2.0028892  )
         9           Fe  tau(   9) = (   0.0000000   0.0000000   0.0000000  )
        10           Fe  tau(  10) = (  -0.8176697   2.3127291   0.0000000  )
        11           Fe  tau(  11) = (   2.4530190   0.0000000   0.0000000  )
        12           Fe  tau(  12) = (  -3.2706887   2.3127291   0.0000000  )
        13           Fe  tau(  13) = (   0.8162527   1.1635926   1.9792446  )
        14           Fe  tau(  14) = (  -0.8252753  -1.1579473   1.9790476  )
        15           Fe  tau(  15) = (   1.6364222  -1.1577179   1.9994291  )
        16           Fe  tau(  16) = (  -1.6427801   1.1613618   2.0028437  )
        17           Fe  tau(  17) = (  -0.0247366   0.0167730   3.9315658  )
        18           Fe  tau(  18) = (  -0.8005517   2.3788086   4.0330839  )
        19           Fe  tau(  19) = (   2.3958466  -0.0390779   4.0332494  )
        20           Fe  tau(  20) = (  -3.2804568   2.3190236   4.0127752  )
        21           O   tau(  21) = (  -1.9247787   1.3607404   5.3411664  )
        22           H   tau(  22) = (  -1.9396934   1.3732394   6.3112818  )
        23           H   tau(  23) = (   0.4359849   3.1601816   5.0281521  )

   Crystallographic axes

     site n.     atom                  positions (cryst. coord.)
         1           Fe  tau(   1) = (  0.0000000  0.0000000 -0.1954028  )
         2           Fe  tau(   2) = (  0.0000007  0.4999995 -0.1954028  )
         3           Fe  tau(   3) = (  0.4999994  0.0000000 -0.1954028  )
         4           Fe  tau(   4) = ( -0.4999986  0.4999995 -0.1954028  )
         5           Fe  tau(   5) = (  0.2499987  0.2499987 -0.0977019  )
         6           Fe  tau(   6) = ( -0.2499987 -0.2499987 -0.0977019  )
         7           Fe  tau(   7) = (  0.2500007 -0.2499987 -0.0977019  )
         8           Fe  tau(   8) = ( -0.2500007  0.2499987 -0.0977019  )
         9           Fe  tau(   9) = (  0.0000000  0.0000000  0.0000000  )
        10           Fe  tau(  10) = (  0.0000007  0.4999995  0.0000000  )
        11           Fe  tau(  11) = (  0.4999994  0.0000000  0.0000000  )
        12           Fe  tau(  12) = ( -0.4999986  0.4999995  0.0000000  )
        13           Fe  tau(  13) = (  0.2502311  0.2515624  0.0965485  )
        14           Fe  tau(  14) = ( -0.2516633 -0.2503419  0.0965389  )
        15           Fe  tau(  15) = (  0.2501215 -0.2502923  0.0975331  )
        16           Fe  tau(  16) = ( -0.2511548  0.2510801  0.0976997  )
        17           Fe  tau(  17) = ( -0.0038333  0.0036262  0.1917837  )
        18           Fe  tau(  18) = (  0.0082519  0.5142855  0.1967358  )
        19           Fe  tau(  19) = (  0.4855298 -0.0084484  0.1967439  )
        20           Fe  tau(  20) = ( -0.5015361  0.5013603  0.1957451  )
        21           O   tau(  21) = ( -0.2942665  0.2941847  0.2605447  )
        22           H   tau(  22) = ( -0.2964058  0.2968869  0.3078674  )
        23           H   tau(  23) = (  0.3166049  0.6832141  0.2452757  )

     number of k points=    20  Marzari-Vanderbilt smearing, width (Ry)=  0.0400
                       cart. coord. in units 2pi/alat
        k(    1) = (   0.0000000   0.0000000   0.0000000), wk =   0.0625000
        k(    2) = (   0.0000000   0.0540486   0.0000000), wk =   0.1250000
        k(    3) = (   0.0000000  -0.1080973   0.0000000), wk =   0.0625000
        k(    4) = (   0.0509576   0.0180162   0.0000000), wk =   0.1250000
        k(    5) = (   0.0509576   0.0720649   0.0000000), wk =   0.1250000
        k(    6) = (   0.0509576  -0.0900811   0.0000000), wk =   0.1250000
        k(    7) = (   0.0509576  -0.0360324   0.0000000), wk =   0.1250000
        k(    8) = (  -0.1019151  -0.0360324   0.0000000), wk =   0.0625000
        k(    9) = (  -0.1019151   0.0180162   0.0000000), wk =   0.1250000
        k(   10) = (  -0.1019151  -0.1441297   0.0000000), wk =   0.0625000
        k(   11) = (   0.0000000   0.0000000   0.0000000), wk =   0.0625000
        k(   12) = (   0.0000000   0.0540486   0.0000000), wk =   0.1250000
        k(   13) = (   0.0000000  -0.1080973   0.0000000), wk =   0.0625000
        k(   14) = (   0.0509576   0.0180162   0.0000000), wk =   0.1250000
        k(   15) = (   0.0509576   0.0720649   0.0000000), wk =   0.1250000
        k(   16) = (   0.0509576  -0.0900811   0.0000000), wk =   0.1250000
        k(   17) = (   0.0509576  -0.0360324   0.0000000), wk =   0.1250000
        k(   18) = (  -0.1019151  -0.0360324   0.0000000), wk =   0.0625000
        k(   19) = (  -0.1019151   0.0180162   0.0000000), wk =   0.1250000
        k(   20) = (  -0.1019151  -0.1441297   0.0000000), wk =   0.0625000

                       cryst. coord.
        k(    1) = (   0.0000000   0.0000000   0.0000000), wk =   0.0625000
        k(    2) = (   0.0000000   0.2500000   0.0000000), wk =   0.1250000
        k(    3) = (   0.0000000  -0.5000000   0.0000000), wk =   0.0625000
        k(    4) = (   0.2500000   0.0000000   0.0000000), wk =   0.1250000
        k(    5) = (   0.2500000   0.2500000   0.0000000), wk =   0.1250000
        k(    6) = (   0.2500000  -0.5000000   0.0000000), wk =   0.1250000
        k(    7) = (   0.2500000  -0.2500000   0.0000000), wk =   0.1250000
        k(    8) = (  -0.5000000  -0.0000000   0.0000000), wk =   0.0625000
[...]
     1.0674   1.0674   1.0725   1.0794   1.0832   1.0826   1.0777   1.0746
     1.0553   1.0464   0.9343   0.8657   0.8413   0.8367   0.8216   0.6627
     0.6167   0.5678   0.5103   0.5097   0.4817   0.4243   0.4042   0.3688
     0.3518   0.2773   0.1097   0.0919   0.0693   0.0469   0.0305   0.0177
     0.0171   0.0117   0.0092   0.0092   0.0079   0.0070   0.0017   0.0016
     0.0016   0.0014   0.0011   0.0007   0.0002   0.0002   0.0001   0.0001
     0.0000   0.0000   0.0000   0.0000   0.0000   0.0000   0.0000   0.0000
     0.0000   0.0000   0.0000   0.0000   0.0000   0.0000   0.0000   0.0000
     0.0000   0.0000   0.0000   0.0000   0.0000   0.0000   0.0000   0.0000
     0.0000   0.0000   0.0000   0.0000   0.0000   0.0000   0.0000   0.0000
     0.0000   0.0000

     the Fermi energy is     7.3085 ev

!    total energy              =   -6629.00572242 Ry
     Harris-Foulkes estimate   =   -6629.00572242 Ry
     estimated scf accuracy    <          9.7E-09 Ry

     total all-electron energy =    -51063.783316 Ry

     The total energy is the sum of the following terms:

     one-electron contribution =  -29655.02210243 Ry
     hartree contribution      =   14914.79163197 Ry
     xc contribution           =    -705.32131354 Ry
     ewald contribution        =   10348.93897621 Ry
     Hubbard energy            =       0.00000000 Ry
     one-center paw contrib.   =   -1532.52193822 Ry
     smearing contrib. (-TS)   =       0.12902359 Ry

     total magnetization       =    46.78 Bohr mag/cell
     absolute magnetization    =    48.99 Bohr mag/cell

     convergence has been achieved in  28 iterations

     Forces acting on atoms (Ry/au):

     negative rho (up, down):  0.402E-04 0.479E-03
     atom    1 type  1   force =    -0.00001161    0.00000662    0.00169943
     atom    2 type  1   force =     0.00017037    0.00013244    0.00249746
     atom    3 type  1   force =    -0.00006512   -0.00020442    0.00249566
     atom    4 type  1   force =    -0.00002168    0.00001368    0.00168750
     atom    5 type  1   force =     0.00000056   -0.00015951    0.00259438
     atom    6 type  1   force =     0.00015526    0.00005540    0.00259379
     atom    7 type  1   force =     0.00002453   -0.00001943    0.00147441
     atom    8 type  1   force =     0.00004775   -0.00002689   -0.00062354
     atom    9 type  1   force =    -0.00005471    0.00001470   -0.00371145
     atom   10 type  1   force =     0.00114815    0.00230366   -0.00375750
     atom   11 type  1   force =    -0.00182375   -0.00189203   -0.00373603
     atom   12 type  1   force =     0.00045583   -0.00037152   -0.00332314
     atom   13 type  1   force =     0.00001856   -0.00002208   -0.00004269
     atom   14 type  1   force =    -0.00003078    0.00004450    0.00002686
     atom   15 type  1   force =     0.00004453    0.00009851    0.00001150
     atom   16 type  1   force =    -0.00001068   -0.00006177    0.00001746
     atom   17 type  1   force =    -0.00002728    0.00005342    0.00001300
     atom   18 type  1   force =     0.00001768   -0.00001403   -0.00001313
     atom   19 type  1   force =     0.00002255    0.00003844   -0.00001337
     atom   20 type  1   force =     0.00003264   -0.00001114    0.00009044
     atom   21 type  2   force =    -0.00000957    0.00005761    0.00000058
     atom   22 type  3   force =    -0.00006481   -0.00003135    0.00001350
     atom   23 type  3   force =    -0.00001844   -0.00000481    0.00000489
     The non-local contrib.  to forces
     atom    1 type  1   force =     0.00007730   -0.00004943   -0.19214784
     atom    2 type  1   force =    -0.00044197   -0.00039910   -0.19284831
     atom    3 type  1   force =     0.00022975    0.00055310   -0.19284252
     atom    4 type  1   force =     0.00019405   -0.00013892   -0.19284376
     atom    5 type  1   force =     0.00013439    0.00049416   -0.02962467
     atom    6 type  1   force =    -0.00041635   -0.00027707   -0.02962300
     atom    7 type  1   force =     0.00047357   -0.00032586   -0.02985380
     atom    8 type  1   force =     0.00008564   -0.00005425   -0.02786549
     atom    9 type  1   force =     0.00168418   -0.00117800    0.00264902
     atom   10 type  1   force =    -0.00125361    0.00119467   -0.00433518
     atom   11 type  1   force =    -0.00152029    0.00082370   -0.00438396
     atom   12 type  1   force =     0.00149994   -0.00100281    0.00688049
     atom   13 type  1   force =    -0.01089914   -0.01034198    0.03410475
     atom   14 type  1   force =     0.00615320    0.01366211    0.03412144
     atom   15 type  1   force =     0.00308035   -0.00221725    0.01448467
     atom   16 type  1   force =     0.00493594   -0.00351368    0.01613097
     atom   17 type  1   force =    -0.10161587    0.07181859    0.31369933
     atom   18 type  1   force =    -0.07776701   -0.06628088    0.20115688
     atom   19 type  1   force =     0.03672393    0.09569873    0.20148392
     atom   20 type  1   force =     0.11080989   -0.07840406    0.23579029
     atom   21 type  2   force =    -0.08587016    0.06481852    1.04810588
     atom   22 type  3   force =     0.00158494   -0.00134164   -0.10742642
     atom   23 type  3   force =     0.00164802   -0.00116031   -0.01946335
     The ionic contribution  to forces
     atom    1 type  1   force =    -0.00024654    0.00002230 -324.60726064
     atom    2 type  1   force =    -0.00013334   -0.00015535 -324.60661149
     atom    3 type  1   force =     0.00030252    0.00010084 -324.60685431
     atom    4 type  1   force =     0.00006795    0.00003189 -324.60812805
     atom    5 type  1   force =    -0.00376601   -0.00641372 -168.17925180
     atom    6 type  1   force =     0.00505406    0.00556067 -168.17964762
     atom    7 type  1   force =    -0.00498705    0.00325514 -168.16117871
     atom    8 type  1   force =     0.00394746   -0.00252871 -168.14792633
     atom    9 type  1   force =    -0.02929351    0.02182607   -9.55155283
     atom   10 type  1   force =    -0.06385773   -0.05853226   -9.35981977
     atom   11 type  1   force =     0.02996013    0.07833847   -9.35211503
     atom   12 type  1   force =     0.05031786   -0.04032289   -9.81977083
     atom   13 type  1   force =     0.09907656    0.11087580  149.15825830
     atom   14 type  1   force =    -0.08619198   -0.12072423  149.14728058
     atom   15 type  1   force =    -0.09695238    0.08618884  149.67834886
     atom   16 type  1   force =     0.06976807   -0.06333125  151.49612949
     atom   17 type  1   force =    -0.45362879    0.32496116  307.50547525
     atom   18 type  1   force =     2.04179977    1.20791399  307.37194932
     atom   19 type  1   force =    -0.46005088   -2.32049235  307.37868895
     atom   20 type  1   force =    -1.69644386    1.19734726  306.92305857
     atom   21 type  2   force =     0.76806672   -0.55233505  133.86963049
     atom   22 type  3   force =    -0.02175346    0.02194116   22.78703680
     atom   23 type  3   force =    -0.15105557    0.10647222   23.86426081
     The local contribution  to forces
     atom    1 type  1   force =     0.00011873    0.00006369  324.80954406
     atom    2 type  1   force =     0.00068712    0.00066935  324.81048757
     atom    3 type  1   force =    -0.00060210   -0.00079864  324.81072203
     atom    4 type  1   force =    -0.00020874    0.00006842  324.81119850
     atom    5 type  1   force =     0.00365860    0.00580901  168.21301824
     atom    6 type  1   force =    -0.00452115   -0.00527091  168.21341116
     atom    7 type  1   force =     0.00456512   -0.00296663  168.19398978
     atom    8 type  1   force =    -0.00398282    0.00255470  168.17658650
     atom    9 type  1   force =     0.02762999   -0.02068440    9.54513635
     atom   10 type  1   force =     0.06637433    0.05968731    9.36053608
     atom   11 type  1   force =    -0.03026595   -0.08117266    9.35289911
     atom   12 type  1   force =    -0.05147602    0.04103983    9.80968692
     atom   13 type  1   force =    -0.08821929   -0.10092225 -149.19474071
     atom   14 type  1   force =     0.08034028    0.10728238 -149.18371614
     atom   15 type  1   force =     0.09419801   -0.08408339 -149.69496920
     atom   16 type  1   force =    -0.07506036    0.06702900 -151.51384901
     atom   17 type  1   force =     0.55722075   -0.39814503 -307.82763157
     atom   18 type  1   force =    -1.95886512   -1.13505523 -307.58677587
     atom   19 type  1   force =     0.41885403    2.21777798 -307.59383716
     atom   20 type  1   force =     1.58238216   -1.11663413 -307.16902205
     atom   21 type  2   force =    -0.68312004    0.48826037 -134.90757075
     atom   22 type  3   force =     0.02010343   -0.02063079  -22.67961927
     atom   23 type  3   force =     0.14939100   -0.10531818  -23.84480901
     The core correction contribution to forces
     atom    1 type  1   force =     0.00004083   -0.00003055   -0.00856715
     atom    2 type  1   force =     0.00005965    0.00001901   -0.00865042
     atom    3 type  1   force =     0.00000333   -0.00006110   -0.00864994
     atom    4 type  1   force =    -0.00007739    0.00005365   -0.00867168
     atom    5 type  1   force =    -0.00002777   -0.00005022   -0.00174523
     atom    6 type  1   force =     0.00003937    0.00004389   -0.00174424
     atom    7 type  1   force =    -0.00002881    0.00001878   -0.00169408
     atom    8 type  1   force =    -0.00000231    0.00000133   -0.00163006
     atom    9 type  1   force =    -0.00006962    0.00004708   -0.00005919
     atom   10 type  1   force =    -0.00010657   -0.00003424   -0.00023471
     atom   11 type  1   force =    -0.00000576    0.00010630   -0.00023245
     atom   12 type  1   force =     0.00010741   -0.00008125   -0.00023194
     atom   13 type  1   force =     0.00005647    0.00035927    0.00228645
     atom   14 type  1   force =    -0.00032591   -0.00017010    0.00229202
     atom   15 type  1   force =    -0.00028546    0.00021273    0.00207451
     atom   16 type  1   force =     0.00034730   -0.00024678    0.00157010
     atom   17 type  1   force =    -0.00200441    0.00141958    0.00852803
     atom   18 type  1   force =    -0.00517093   -0.00660156    0.01369834
     atom   19 type  1   force =     0.00449705    0.00707708    0.01369261
     atom   20 type  1   force =     0.00329917   -0.00233139    0.01033390
     atom   21 type  2   force =     0.00091101   -0.00068414   -0.01013635
     atom   22 type  3   force =     0.00000000    0.00000000    0.00000000
     atom   23 type  3   force =     0.00000000    0.00000000    0.00000000
     The Hubbard contrib.    to forces
     atom    1 type  1   force =     0.00000000   -0.00000000   -0.00000000
     atom    2 type  1   force =     0.00000000    0.00000000   -0.00000000
     atom    3 type  1   force =    -0.00000000   -0.00000000   -0.00000000
     atom    4 type  1   force =     0.00000000   -0.00000000   -0.00000000
     atom    5 type  1   force =     0.00000000   -0.00000000    0.00000000
     atom    6 type  1   force =     0.00000000   -0.00000000    0.00000000
     atom    7 type  1   force =     0.00000000   -0.00000000    0.00000000
     atom    8 type  1   force =    -0.00000000    0.00000000   -0.00000000
     atom    9 type  1   force =    -0.00000000    0.00000000    0.00000000
     atom   10 type  1   force =     0.00000000    0.00000000    0.00000000
     atom   11 type  1   force =    -0.00000000   -0.00000000    0.00000000
     atom   12 type  1   force =    -0.00000000    0.00000000    0.00000000
     atom   13 type  1   force =    -0.00000000   -0.00000000   -0.00000000
     atom   14 type  1   force =     0.00000000    0.00000000   -0.00000000
     atom   15 type  1   force =    -0.00000000    0.00000000    0.00000000
     atom   16 type  1   force =    -0.00000000    0.00000000    0.00000000
     atom   17 type  1   force =    -0.00000000    0.00000000    0.00000000
     atom   18 type  1   force =     0.00000000    0.00000000    0.00000000
     atom   19 type  1   force =    -0.00000000   -0.00000000    0.00000000
     atom   20 type  1   force =    -0.00000000    0.00000000   -0.00000000
     atom   21 type  2   force =    -0.00000000    0.00000000    0.00000000
     atom   22 type  3   force =     0.00000000   -0.00000000   -0.00000000
     atom   23 type  3   force =     0.00000000   -0.00000000   -0.00000000
     The SCF correction term to forces
     atom    1 type  1   force =     0.00000000    0.00000000    0.00000000
     atom    2 type  1   force =     0.00000000    0.00000000    0.00000000
     atom    3 type  1   force =     0.00000000    0.00000000    0.00000000
     atom    4 type  1   force =     0.00000000    0.00000000    0.00000000
     atom    5 type  1   force =     0.00000000    0.00000000    0.00000000
     atom    6 type  1   force =     0.00000000    0.00000000    0.00000000
     atom    7 type  1   force =     0.00000000    0.00000000    0.00000000
     atom    8 type  1   force =     0.00000000    0.00000000    0.00000000
     atom    9 type  1   force =     0.00000000    0.00000000    0.00000000
     atom   10 type  1   force =     0.00000000    0.00000000    0.00000000
     atom   11 type  1   force =     0.00000000    0.00000000    0.00000000
     atom   12 type  1   force =     0.00000000    0.00000000    0.00000000
     atom   13 type  1   force =     0.00000370    0.00000716    0.00002500
     atom   14 type  1   force =    -0.00000664   -0.00000558    0.00002545
     atom   15 type  1   force =     0.00000376   -0.00000235    0.00004914
     atom   16 type  1   force =    -0.00000190    0.00000102    0.00001239
     atom   17 type  1   force =     0.00000080   -0.00000080   -0.00008155
     atom   18 type  1   force =     0.00002072    0.00000971   -0.00006532
     atom   19 type  1   force =    -0.00000183   -0.00002292   -0.00006521
     atom   20 type  1   force =    -0.00001498    0.00001125   -0.00009378
     atom   21 type  2   force =     0.00000264   -0.00000202   -0.00005221
     atom   22 type  3   force =     0.00000002    0.00000000   -0.00000113
     atom   23 type  3   force =    -0.00000215    0.00000153   -0.00000708

     Total force =     0.000218     Total SCF correction =     0.000179
     SCF correction compared to forces is large: reduce conv_thr to get better values

     entering subroutine stress ...

     negative rho (up, down):  0.402E-04 0.479E-03
          total   stress  (Ry/bohr**3)                   (kbar)     P=   -5.97
  -0.00003401  -0.00003477  -0.00000051         -5.00     -5.11     -0.08
  -0.00003477  -0.00005856   0.00000050         -5.11     -8.61      0.07
  -0.00000051   0.00000050  -0.00002922         -0.08      0.07     -4.30

     kinetic stress (kbar)  40432.76    -11.24      2.04
                              -11.24  40424.81     -1.54
                                2.04     -1.54  40191.31

     local   stress (kbar)**********    497.75   -150.40
                              497.75**********    102.94
                             -150.40    102.941317652.36

     nonloc. stress (kbar) -30993.22      7.47      0.26
                                7.47 -30987.93     -0.25
                                0.26     -0.25 -30858.14

     hartree stress (kbar) 657168.27   -188.77     62.59
                             -188.77 657034.75    -43.06
                               62.59    -43.06-615315.75

     exc-cor stress (kbar)  -1379.92     -0.44      0.10
                               -0.44  -1380.23     -0.06
                                0.10     -0.06  -1387.70

     corecor stress (kbar)  -8194.04      0.26     -0.09
                                0.26  -8193.86      0.06
                               -0.09      0.06  -8192.26

     ewald   stress (kbar) 593625.51   -310.15     85.44
                             -310.15 593406.11    -58.02
                               85.44    -58.02-702094.12

     hubbard stress (kbar)     -0.00      0.00      0.00
                                0.00     -0.00     -0.00
                                0.00     -0.00     -0.00

     london  stress (kbar)      0.00      0.00      0.00
                                0.00      0.00      0.00
                                0.00      0.00      0.00

     dft-nl  stress (kbar)      0.00      0.00      0.00
                                0.00      0.00      0.00
                                0.00      0.00      0.00

     Writing output data file Fe_110_2x2_SB_HO_LB_H.save

     General routines

     Parallel routines
     Hubbard U routines

     PAW routines

   This run was terminated on:  11:49:36   4Aug2015

   JOB DONE.
Application 16678892 resources: utime ~105315s, stime ~3442s, Rss ~524888, inblocks ~4990708863, outblocks ~804563671