     Program PWSCF v.5.0.2 (svn rev. 9656) starts on  4Aug2015 at 10:13:51

     Current dimensions of program PWSCF are:
     Max number of different atomic species (ntypx) = 10
     Max number of k-points (npk) =  40000
     Max angular momentum in pseudopotentials (lmaxx) =  3
     Reading input from Fe_110_2x2_SB_HS_LB_H_scf.in
Warning: card  &IONS ignored
Warning: card  / ignored
Warning: card  &CELL ignored
Warning: card    PRESS=0.0 ignored
Warning: card    PRESS_CONV_THR=0.1 ignored
Warning: card  / ignored

     IMPORTANT: XC functional enforced from input :
     Exchange-correlation      = PBE ( 1 4 3 4 0)
     EXX-fraction              =        0.00
     Any further DFT definition will be discarded
     Please, verify this is what you really want

               file Fe.pbe-spn-kjpaw_psl.0.2.1.UPF: wavefunction(s)  3D renormalized
               file S.pbe-n-kjpaw_psl.0.1.UPF: wavefunction(s)  3P renormalized
               file H.pbe-kjpaw_psl.0.1.upf: wavefunction(s)  1S renormalized

   Task Groups are in USE
   groups and procs/group :     2    6

     bravais-lattice index     =            0
     lattice parameter (alat)  =       1.8897  a.u.
     unit-cell volume          =    3139.3349 (a.u.)^3
     number of atoms/cell      =           23
     number of atomic types    =            3
     number of electrons       =       328.00
     number of Kohn-Sham states=          202
     kinetic-energy cutoff     =      95.0000  Ry
     charge density cutoff     =     800.0000  Ry
     convergence threshold     =      1.0E-08
     mixing beta               =       0.5000
     number of iterations used =            8  local-TF  mixing
     Exchange-correlation      = PBE ( 1 4 3 4 0)
     EXX-fraction              =        0.00

     celldm(1)=   1.889727  celldm(2)=   0.000000  celldm(3)=   0.000000
     celldm(4)=   0.000000  celldm(5)=   0.000000  celldm(6)=   0.000000

     crystal axes: (cart. coord. in units of alat)
               a(1) = (   4.906044   0.000000   0.000000 )
               a(2) = (  -1.635348   4.625463   0.000000 )
               a(3) = (   0.000000   0.000000  20.500000 )

     reciprocal axes: (cart. coord. in units 2 pi/alat)
               b(1) = (  0.203830  0.072065  0.000000 )
               b(2) = (  0.000000  0.216195  0.000000 )
               b(3) = (  0.000000  0.000000  0.048780 )

     PseudoPot. # 1 for Fe read from file:
     /work/e05/e05/ablar/QE_PSEUDO/Fe.pbe-spn-kjpaw_psl.0.2.1.UPF
     MD5 check sum: a0a08122d52b112de96d1da1d7dd020f
     Pseudo is Projector augmented-wave + core cor, Zval = 16.0
     Generated using "atomic" code by A. Dal Corso  v.5.0.2 svn rev. 9415
     Shape of augmentation charge: PSQ
     Using radial grid of 1191 points,  6 beta functions with:
                l(1) =   0
                l(2) =   0
                l(3) =   1
                l(4) =   1
                l(5) =   2
                l(6) =   2
     Q(r) pseudized with 0 coefficients

     PseudoPot. # 2 for  S read from file:
     /work/e05/e05/ablar/QE_PSEUDO/S.pbe-n-kjpaw_psl.0.1.UPF
     MD5 check sum: 4d0aa7498161b95d6b336a838fdb998f
     Pseudo is Projector augmented-wave + core cor, Zval =  6.0
     Generated using "atomic" code by A. Dal Corso  v.5.0.2 svn rev. 9415
     Shape of augmentation charge: PSQ
     Using radial grid of 1151 points,  4 beta functions with:
                l(1) =   0
                l(2) =   0
                l(3) =   1
                l(4) =   1
     Q(r) pseudized with 0 coefficients

     PseudoPot. # 3 for  H read from file:
     /work/e05/e05/ablar/QE_PSEUDO/H.pbe-kjpaw_psl.0.1.upf
     MD5 check sum: 94e484f906d9e9773b2f6e52662335b2
     Pseudo is Projector augmented-wave, Zval =  1.0
     Generated using "atomic" code by A. Dal Corso  v.5.0.99 svn rev. 10869
     Shape of augmentation charge: PSQ
     Using radial grid of  929 points,  2 beta functions with:
                l(1) =   0
                l(2) =   0
     Q(r) pseudized with 0 coefficients

     atomic species   valence    mass     pseudopotential
        Fe            16.00    55.85000     Fe( 1.00)
        S              6.00    32.00000      S( 1.00)
        H              1.00     1.00000      H( 1.00)

     Starting magnetic structure
     atomic species   magnetization
        Fe           0.600
        S            0.000
        H            0.000

     Simplified LDA+U calculation (l_max = 2) with parameters (eV):
     atomic species    L          U    alpha       J0     beta
        Fe             2     0.0000   0.0000   0.0000   0.0000

     No symmetry found

                                    s                        frac. trans.

      isym =  1     identity

 cryst.   s( 1) = (     1          0          0      )
                  (     0          1          0      )
                  (     0          0          1      )

 cart.    s( 1) = (  1.0000000  0.0000000  0.0000000 )
                  (  0.0000000  1.0000000  0.0000000 )
                  (  0.0000000  0.0000000  1.0000000 )

     point group C_1 (1)
     there are  1 classes
     the character table:

       E
A      1.00

     the symmetry operations in each class:
     E        1

   Cartesian axes

     site n.     atom                  positions (alat units)
         1           Fe  tau(   1) = (   0.0000000   0.0000000  -4.0057584  )
         2           Fe  tau(   2) = (  -0.8176697   2.3127291  -4.0057584  )
         3           Fe  tau(   3) = (   2.4530190   0.0000000  -4.0057584  )
         4           Fe  tau(   4) = (  -3.2706887   2.3127291  -4.0057584  )
         5           Fe  tau(   5) = (   0.8176697   1.1563595  -2.0028892  )
         6           Fe  tau(   6) = (  -0.8176697  -1.1563595  -2.0028892  )
         7           Fe  tau(   7) = (   1.6353494  -1.1563595  -2.0028892  )
         8           Fe  tau(   8) = (  -1.6353494   1.1563595  -2.0028892  )
         9           Fe  tau(   9) = (   0.0000000   0.0000000   0.0000000  )
        10           Fe  tau(  10) = (  -0.8176697   2.3127291   0.0000000  )
        11           Fe  tau(  11) = (   2.4530190   0.0000000   0.0000000  )
        12           Fe  tau(  12) = (  -3.2706887   2.3127291   0.0000000  )
        13           Fe  tau(  13) = (   0.8217863   1.1519845   1.9910021  )
        14           Fe  tau(  14) = (  -0.8116442  -1.1581359   1.9910190  )
        15           Fe  tau(  15) = (   1.6357719  -1.1560673   1.9877039  )
        16           Fe  tau(  16) = (  -1.6266613   1.1506829   1.9979116  )
        17           Fe  tau(  17) = (   0.0235455  -0.0159363   4.0629369  )
        18           Fe  tau(  18) = (  -0.7735053   2.3347271   3.9823849  )
        19           Fe  tau(  19) = (   2.4475251  -0.0480861   3.9826722  )
        20           Fe  tau(  20) = (  -3.2428353   2.2936694   3.9905525  )
        21           S   tau(  21) = (  -1.4066224   0.9955628   5.6346922  )
        22           H   tau(  22) = (  -0.1553326   0.1089832   5.7437777  )
        23           H   tau(  23) = (  -0.4036481   3.7545909   4.9404872  )

   Crystallographic axes

     site n.     atom                  positions (cryst. coord.)
         1           Fe  tau(   1) = (  0.0000000  0.0000000 -0.1954028  )
         2           Fe  tau(   2) = (  0.0000007  0.4999995 -0.1954028  )
         3           Fe  tau(   3) = (  0.4999994  0.0000000 -0.1954028  )
         4           Fe  tau(   4) = ( -0.4999986  0.4999995 -0.1954028  )
         5           Fe  tau(   5) = (  0.2499987  0.2499987 -0.0977019  )
         6           Fe  tau(   6) = ( -0.2499987 -0.2499987 -0.0977019  )
         7           Fe  tau(   7) = (  0.2500007 -0.2499987 -0.0977019  )
         8           Fe  tau(   8) = ( -0.2500007  0.2499987 -0.0977019  )
         9           Fe  tau(   9) = (  0.0000000  0.0000000  0.0000000  )
        10           Fe  tau(  10) = (  0.0000007  0.4999995  0.0000000  )
        11           Fe  tau(  11) = (  0.4999994  0.0000000  0.0000000  )
        12           Fe  tau(  12) = ( -0.4999986  0.4999995  0.0000000  )
        13           Fe  tau(  13) = (  0.2505225  0.2490528  0.0971221  )
        14           Fe  tau(  14) = ( -0.2488985 -0.2503827  0.0971229  )
        15           Fe  tau(  15) = (  0.2501079 -0.2499355  0.0969612  )
        16           Fe  tau(  16) = ( -0.2486389  0.2487714  0.0974591  )
        17           Fe  tau(  17) = (  0.0036508 -0.0034453  0.1981920  )
        18           Fe  tau(  18) = (  0.0105880  0.5047553  0.1942627  )
        19           Fe  tau(  19) = (  0.4954142 -0.0103959  0.1942767  )
        20           Fe  tau(  20) = ( -0.4956948  0.4958789  0.1946611  )
        21           S   tau(  21) = ( -0.2149670  0.2152353  0.2748630  )
        22           H   tau(  22) = ( -0.0238076  0.0235616  0.2801843  )
        23           H   tau(  23) = (  0.1882984  0.8117222  0.2409994  )

     number of k points=    20  Marzari-Vanderbilt smearing, width (Ry)=  0.0400
                       cart. coord. in units 2pi/alat
        k(    1) = (   0.0000000   0.0000000   0.0000000), wk =   0.0625000
        k(    2) = (   0.0000000   0.0540486   0.0000000), wk =   0.1250000
        k(    3) = (   0.0000000  -0.1080973   0.0000000), wk =   0.0625000
        k(    4) = (   0.0509576   0.0180162   0.0000000), wk =   0.1250000
        k(    5) = (   0.0509576   0.0720649   0.0000000), wk =   0.1250000
        k(    6) = (   0.0509576  -0.0900811   0.0000000), wk =   0.1250000
        k(    7) = (   0.0509576  -0.0360324   0.0000000), wk =   0.1250000
        k(    8) = (  -0.1019151  -0.0360324   0.0000000), wk =   0.0625000
        k(    9) = (  -0.1019151   0.0180162   0.0000000), wk =   0.1250000
        k(   10) = (  -0.1019151  -0.1441297   0.0000000), wk =   0.0625000
        k(   11) = (   0.0000000   0.0000000   0.0000000), wk =   0.0625000
        k(   12) = (   0.0000000   0.0540486   0.0000000), wk =   0.1250000
        k(   13) = (   0.0000000  -0.1080973   0.0000000), wk =   0.0625000
        k(   14) = (   0.0509576   0.0180162   0.0000000), wk =   0.1250000
        k(   15) = (   0.0509576   0.0720649   0.0000000), wk =   0.1250000
        k(   16) = (   0.0509576  -0.0900811   0.0000000), wk =   0.1250000
        k(   17) = (   0.0509576  -0.0360324   0.0000000), wk =   0.1250000
        k(   18) = (  -0.1019151  -0.0360324   0.0000000), wk =   0.0625000
        k(   19) = (  -0.1019151   0.0180162   0.0000000), wk =   0.1250000
        k(   20) = (  -0.1019151  -0.1441297   0.0000000), wk =   0.0625000

                       cryst. coord.
        k(    1) = (   0.0000000   0.0000000   0.0000000), wk =   0.0625000
        k(    2) = (   0.0000000   0.2500000   0.0000000), wk =   0.1250000
        k(    3) = (   0.0000000  -0.5000000   0.0000000), wk =   0.0625000
        k(    4) = (   0.2500000   0.0000000   0.0000000), wk =   0.1250000
        k(    5) = (   0.2500000   0.2500000   0.0000000), wk =   0.1250000
        k(    6) = (   0.2500000  -0.5000000   0.0000000), wk =   0.1250000
        k(    7) = (   0.2500000  -0.2500000   0.0000000), wk =   0.1250000
        k(    8) = (  -0.5000000  -0.0000000   0.0000000), wk =   0.0625000
[...]
     1.0596   1.0647   1.0736   1.0811   1.0827   1.0823   1.0787   1.0755
     1.0676   1.0584   1.0090   0.9942   0.9161   0.9101   0.8399   0.8101
     0.6232   0.5966   0.5576   0.5249   0.5233   0.4641   0.4536   0.4125
     0.3899   0.3625   0.1710   0.1125   0.0712   0.0570   0.0556   0.0436
     0.0294   0.0191   0.0097   0.0093   0.0084   0.0083   0.0043   0.0022
     0.0018   0.0015   0.0013   0.0009   0.0002   0.0002   0.0001   0.0001
     0.0000   0.0000   0.0000   0.0000   0.0000   0.0000   0.0000   0.0000
     0.0000   0.0000   0.0000   0.0000   0.0000   0.0000   0.0000   0.0000
     0.0000   0.0000   0.0000   0.0000   0.0000   0.0000   0.0000   0.0000
     0.0000   0.0000   0.0000   0.0000   0.0000   0.0000   0.0000   0.0000
     0.0000   0.0000

     the Fermi energy is     7.2230 ev

!    total energy              =   -6653.67998342 Ry
     Harris-Foulkes estimate   =   -6653.67998342 Ry
     estimated scf accuracy    <          5.7E-09 Ry

     total all-electron energy =    -51711.711822 Ry

     The total energy is the sum of the following terms:

     one-electron contribution =  -29518.66413276 Ry
     hartree contribution      =   14845.16510285 Ry
     xc contribution           =    -704.91406239 Ry
     ewald contribution        =   10291.78024939 Ry
     Hubbard energy            =       0.00000000 Ry
     one-center paw contrib.   =   -1567.17695245 Ry
     smearing contrib. (-TS)   =       0.12981194 Ry

     total magnetization       =    45.44 Bohr mag/cell
     absolute magnetization    =    47.76 Bohr mag/cell

     convergence has been achieved in  28 iterations

     Forces acting on atoms (Ry/au):

     negative rho (up, down):  0.419E-04 0.403E-03
     atom    1 type  1   force =     0.00002223   -0.00001522    0.00172552
     atom    2 type  1   force =    -0.00009713   -0.00005361    0.00284379
     atom    3 type  1   force =     0.00002014    0.00010866    0.00284264
     atom    4 type  1   force =    -0.00003564    0.00002604    0.00164186
     atom    5 type  1   force =    -0.00024036   -0.00007300    0.00238677
     atom    6 type  1   force =    -0.00001241    0.00024616    0.00238728
     atom    7 type  1   force =     0.00007602   -0.00006258    0.00072990
     atom    8 type  1   force =    -0.00006847    0.00005096   -0.00071905
     atom    9 type  1   force =     0.00005761    0.00000494   -0.00006926
     atom   10 type  1   force =    -0.00034970   -0.00085140   -0.00654800
     atom   11 type  1   force =     0.00073297    0.00067508   -0.00655765
     atom   12 type  1   force =    -0.00002047    0.00006376   -0.00061150
     atom   13 type  1   force =    -0.00001046   -0.00005085    0.00001965
     atom   14 type  1   force =     0.00000080   -0.00001042    0.00001855
     atom   15 type  1   force =    -0.00009770    0.00001307    0.00002261
     atom   16 type  1   force =     0.00002213   -0.00003940    0.00006512
     atom   17 type  1   force =    -0.00006498   -0.00000923   -0.00000047
     atom   18 type  1   force =    -0.00004871   -0.00000856   -0.00004017
     atom   19 type  1   force =    -0.00002648    0.00002835   -0.00008533
     atom   20 type  1   force =    -0.00000699    0.00000744   -0.00002040
     atom   21 type  2   force =     0.00004772   -0.00007844    0.00000724
     atom   22 type  3   force =     0.00003483    0.00000743   -0.00001453
     atom   23 type  3   force =     0.00006504    0.00002082   -0.00002456
     The non-local contrib.  to forces
     atom    1 type  1   force =     0.00013572   -0.00009612   -0.19660934
     atom    2 type  1   force =    -0.00021653    0.00018498   -0.19627291
     atom    3 type  1   force =    -0.00024954    0.00014060   -0.19626934
     atom    4 type  1   force =     0.00024991   -0.00017933   -0.19598129
     atom    5 type  1   force =    -0.00021477   -0.00007015   -0.03037603
     atom    6 type  1   force =    -0.00001875    0.00021123   -0.03037815
     atom    7 type  1   force =    -0.00048613    0.00033569   -0.02894444
     atom    8 type  1   force =     0.00009826   -0.00008116   -0.02788952
     atom    9 type  1   force =    -0.00047048    0.00029556    0.00150275
     atom   10 type  1   force =     0.00222239    0.00208876    0.00006833
     atom   11 type  1   force =    -0.00126647   -0.00284902    0.00009665
     atom   12 type  1   force =    -0.00037937    0.00022380    0.00050140
     atom   13 type  1   force =     0.00982338    0.01116799    0.01419274
     atom   14 type  1   force =    -0.00727666   -0.01291073    0.01419843
     atom   15 type  1   force =    -0.00117362    0.00084365    0.02615843
     atom   16 type  1   force =    -0.00187607    0.00137744    0.03067558
     atom   17 type  1   force =    -0.08392870    0.05927684    0.30494714
     atom   18 type  1   force =    -0.04477207   -0.05397893    0.17201772
     atom   19 type  1   force =     0.03601417    0.06015059    0.17197837
     atom   20 type  1   force =     0.04613045   -0.03255218    0.28057543
     atom   21 type  2   force =     0.18075216   -0.12805178   -0.23726117
     atom   22 type  3   force =    -0.02150227    0.01525636   -0.01791595
     atom   23 type  3   force =    -0.00376115    0.00265288   -0.02078888
     The ionic contribution  to forces
     atom    1 type  1   force =    -0.00048545    0.00017687 -324.28211826
     atom    2 type  1   force =    -0.00029084   -0.00045120 -324.28149423
     atom    3 type  1   force =     0.00054263    0.00033852 -324.28177484
     atom    4 type  1   force =     0.00022575   -0.00006522 -324.28110782
     atom    5 type  1   force =     0.00183564    0.00410146 -167.84123480
     atom    6 type  1   force =    -0.00274222   -0.00343766 -167.84118709
     atom    7 type  1   force =     0.00270871   -0.00249804 -167.85436422
     atom    8 type  1   force =    -0.00207019    0.00199151 -167.82857541
     atom    9 type  1   force =    -0.07928511    0.05800229   -9.24137271
     atom   10 type  1   force =    -0.08137253   -0.13768031   -9.22062465
     atom   11 type  1   force =     0.10566305    0.12580232   -9.22194047
     atom   12 type  1   force =     0.07118384   -0.04743343   -9.13916846
     atom   13 type  1   force =    -0.22972254   -0.19468643  150.42650235
     atom   14 type  1   force =     0.10477493    0.28004367  150.42931570
     atom   15 type  1   force =     0.06407295   -0.04655752  148.77142374
     atom   16 type  1   force =     0.09125320   -0.06786669  150.63683655
     atom   17 type  1   force =     0.17720544   -0.12864145  307.63079075
     atom   18 type  1   force =     0.48059719    0.34949610  304.89411754
     atom   19 type  1   force =    -0.16611628   -0.57338073  304.91091056
     atom   20 type  1   force =    -0.21055523    0.15147063  309.78283621
     atom   21 type  2   force =    -1.45762750    1.03247180  131.50969840
     atom   22 type  3   force =     0.71355006   -0.50728630   22.62393005
     atom   23 type  3   force =     0.41665450   -0.29391017   23.69860110
     The local contribution  to forces
     atom    1 type  1   force =     0.00037426   -0.00009866  324.48920280
     atom    2 type  1   force =     0.00042909    0.00021824  324.48937673
     atom    3 type  1   force =    -0.00027188   -0.00038978  324.48965236
     atom    4 type  1   force =    -0.00051974    0.00027584  324.48757400
     atom    5 type  1   force =    -0.00187132   -0.00410919  167.87572225
     atom    6 type  1   force =     0.00275104    0.00348405  167.87567695
     atom    7 type  1   force =    -0.00215545    0.00210641  167.88578473
     atom    8 type  1   force =     0.00190299   -0.00185870  167.85725564
     atom    9 type  1   force =     0.07984247   -0.05831909    9.23982491
     atom   10 type  1   force =     0.07885619    0.13476627    9.21431379
     atom   11 type  1   force =    -0.10367522   -0.12234556    9.21559398
     atom   12 type  1   force =    -0.07095979    0.04736281    9.13818691
     atom   13 type  1   force =     0.22029201    0.18403538 -150.44291563
     atom   14 type  1   force =    -0.09789470   -0.26770914 -150.44573550
     atom   15 type  1   force =    -0.06341422    0.04602586 -148.79784324
     atom   16 type  1   force =    -0.08899409    0.06620019 -150.66937114
     atom   17 type  1   force =    -0.09276139    0.06894249 -307.93686668
     atom   18 type  1   force =    -0.43510493   -0.29494902 -305.07081225
     atom   19 type  1   force =     0.12979110    0.51234658 -305.08761352
     atom   20 type  1   force =     0.16295751   -0.11787738 -310.07230403
     atom   21 type  2   force =     1.28451570   -0.90987696 -131.28199003
     atom   22 type  3   force =    -0.69201195    0.49203678  -22.60602354
     atom   23 type  3   force =    -0.41282679    0.29127711  -23.67783359
     The core correction contribution to forces
     atom    1 type  1   force =    -0.00000303    0.00000338   -0.00869605
     atom    2 type  1   force =    -0.00001945   -0.00000732   -0.00869624
     atom    3 type  1   force =     0.00000061    0.00002084   -0.00869601
     atom    4 type  1   force =     0.00000963   -0.00000583   -0.00878694
     atom    5 type  1   force =     0.00000982    0.00000523   -0.00171237
     atom    6 type  1   force =    -0.00000214   -0.00001172   -0.00171237
     atom    7 type  1   force =     0.00000867   -0.00000703   -0.00170904
     atom    8 type  1   force =     0.00000160   -0.00000049   -0.00146997
     atom    9 type  1   force =    -0.00004029    0.00003429    0.00008824
     atom   10 type  1   force =    -0.00006954   -0.00004683   -0.00023202
     atom   11 type  1   force =     0.00002605    0.00008798   -0.00023426
     atom   12 type  1   force =     0.00014571   -0.00009732   -0.00001766
     atom   13 type  1   force =    -0.00039293   -0.00055149    0.00231873
     atom   14 type  1   force =     0.00038595    0.00055006    0.00231838
     atom   15 type  1   force =     0.00042269   -0.00030364    0.00032129
     atom   16 type  1   force =    -0.00036701    0.00025515    0.00195245
     atom   17 type  1   force =    -0.00057255    0.00040722    0.00103692
     atom   18 type  1   force =    -0.00076661   -0.00057806    0.00457750
     atom   19 type  1   force =     0.00028710    0.00091057    0.00458058
     atom   20 type  1   force =     0.00145522   -0.00102950    0.00876687
     atom   21 type  2   force =    -0.00759720    0.00538198    0.00954351
     atom   22 type  3   force =     0.00000000    0.00000000    0.00000000
     atom   23 type  3   force =     0.00000000    0.00000000    0.00000000
     The Hubbard contrib.    to forces
     atom    1 type  1   force =     0.00000000   -0.00000000   -0.00000000
     atom    2 type  1   force =    -0.00000000   -0.00000000   -0.00000000
     atom    3 type  1   force =     0.00000000    0.00000000   -0.00000000
     atom    4 type  1   force =    -0.00000000    0.00000000   -0.00000000
     atom    5 type  1   force =    -0.00000000   -0.00000000    0.00000000
     atom    6 type  1   force =     0.00000000    0.00000000    0.00000000
     atom    7 type  1   force =    -0.00000000    0.00000000    0.00000000
     atom    8 type  1   force =     0.00000000   -0.00000000   -0.00000000
     atom    9 type  1   force =     0.00000000   -0.00000000    0.00000000
     atom   10 type  1   force =     0.00000000    0.00000000    0.00000000
     atom   11 type  1   force =    -0.00000000   -0.00000000    0.00000000
     atom   12 type  1   force =    -0.00000000    0.00000000   -0.00000000
     atom   13 type  1   force =     0.00000000    0.00000000   -0.00000000
     atom   14 type  1   force =    -0.00000000   -0.00000000   -0.00000000
     atom   15 type  1   force =    -0.00000000    0.00000000    0.00000000
     atom   16 type  1   force =     0.00000000   -0.00000000    0.00000000
     atom   17 type  1   force =     0.00000000   -0.00000000    0.00000000
     atom   18 type  1   force =    -0.00000000    0.00000000    0.00000000
     atom   19 type  1   force =    -0.00000000    0.00000000    0.00000000
     atom   20 type  1   force =     0.00000000   -0.00000000    0.00000000
     atom   21 type  2   force =    -0.00000000    0.00000000    0.00000000
     atom   22 type  3   force =     0.00000000   -0.00000000   -0.00000000
     atom   23 type  3   force =    -0.00000000    0.00000000   -0.00000000
     The SCF correction term to forces
     atom    1 type  1   force =     0.00000000    0.00000000    0.00000000
     atom    2 type  1   force =     0.00000000    0.00000000    0.00000000
     atom    3 type  1   force =     0.00000000    0.00000000    0.00000000
     atom    4 type  1   force =     0.00000000    0.00000000    0.00000000
     atom    5 type  1   force =     0.00000000    0.00000000    0.00000000
     atom    6 type  1   force =     0.00000000    0.00000000    0.00000000
     atom    7 type  1   force =     0.00000000    0.00000000    0.00000000
     atom    8 type  1   force =     0.00000000    0.00000000    0.00000000
     atom    9 type  1   force =     0.00000000    0.00000000    0.00000000
     atom   10 type  1   force =     0.00000000    0.00000000    0.00000000
     atom   11 type  1   force =     0.00000000    0.00000000    0.00000000
     atom   12 type  1   force =     0.00000000    0.00000000    0.00000000
     atom   13 type  1   force =    -0.00001013   -0.00001632   -0.00007060
     atom   14 type  1   force =     0.00001154    0.00001569   -0.00007051
     atom   15 type  1   force =    -0.00000523    0.00000470   -0.00002966
     atom   16 type  1   force =     0.00000637   -0.00000552   -0.00002038
     atom   17 type  1   force =    -0.00000752    0.00000564    0.00009934
     atom   18 type  1   force =    -0.00000203    0.00000131    0.00006726
     atom   19 type  1   force =    -0.00000231    0.00000131    0.00006662
     atom   20 type  1   force =     0.00000532   -0.00000417    0.00011307
     atom   21 type  2   force =     0.00000483   -0.00000349    0.00002448
     atom   22 type  3   force =    -0.00000075    0.00000055    0.00000287
     atom   23 type  3   force =    -0.00000126    0.00000096    0.00000475

     Total force =     0.000230     Total SCF correction =     0.000211
     SCF correction compared to forces is large: reduce conv_thr to get better values

     entering subroutine stress ...

     negative rho (up, down):  0.419E-04 0.403E-03
          total   stress  (Ry/bohr**3)                   (kbar)     P=   -6.92
  -0.00004365  -0.00003631   0.00000044         -6.42     -5.34      0.06
  -0.00003631  -0.00006933  -0.00000052         -5.34    -10.20     -0.08
   0.00000044  -0.00000052  -0.00002818          0.06     -0.08     -4.14

     kinetic stress (kbar)  40232.74      4.26      4.62
                                4.26  40235.68     -3.35
                                4.62     -3.35  40098.03

     local   stress (kbar)**********    859.42    116.07
                              859.42**********    -78.44
                              116.07    -78.441312292.78

     nonloc. stress (kbar) -30939.26     15.87     -1.95
                               15.87 -30928.06      1.49
                               -1.95      1.49 -30810.86

     hartree stress (kbar) 654230.71   -328.95    -42.08
                             -328.95 653998.19     28.43
                              -42.08     28.43-612604.23

     exc-cor stress (kbar)  -1247.16     -0.97     -0.14
                               -0.97  -1247.84      0.09
                               -0.14      0.09  -1255.24

     corecor stress (kbar)  -8297.30     -0.22     -0.05
                               -0.22  -8297.45      0.04
                               -0.05      0.04  -8296.47

     ewald   stress (kbar) 591039.58   -554.76    -76.40
                             -554.76 590647.69     51.66
                              -76.40     51.66-699428.15

     hubbard stress (kbar)     -0.00      0.00     -0.00
                                0.00     -0.00      0.00
                               -0.00      0.00     -0.00

     london  stress (kbar)      0.00      0.00      0.00
                                0.00      0.00      0.00
                                0.00      0.00      0.00

     dft-nl  stress (kbar)      0.00      0.00      0.00
                                0.00      0.00      0.00
                                0.00      0.00      0.00

     Writing output data file Fe_110_2x2_SB_HS_LB_H.save

     General routines

     Parallel routines
     Hubbard U routines

     PAW routines

   This run was terminated on:  10:51:14   4Aug2015

   JOB DONE.
Application 16678723 resources: utime ~103843s, stime ~3519s, Rss ~526240, inblocks ~4990717228, outblocks ~804563759