     Program PWSCF v.5.0.2 (svn rev. 9656) starts on 14Dec2015 at 10:56: 1

     Current dimensions of program PWSCF are:
     Max number of different atomic species (ntypx) = 10
     Max number of k-points (npk) =  40000
     Max angular momentum in pseudopotentials (lmaxx) =  3
     Reading input from Fe_100_2x2_H2O_top_5ML_scf.in
Warning: card  &IONS ignored
Warning: card  / ignored
Warning: card  &CELL ignored
Warning: card    PRESS=0.0 ignored
Warning: card    PRESS_CONV_THR=0.1 ignored
Warning: card  / ignored

     IMPORTANT: XC functional enforced from input :
     Exchange-correlation      = PBE ( 1 4 3 4 0)
     EXX-fraction              =        0.00
     Any further DFT definition will be discarded
     Please, verify this is what you really want

               file Fe.pbe-spn-kjpaw_psl.0.2.1.UPF: wavefunction(s)  3D renormalized
               file O.pbe-n-kjpaw_psl.0.1.UPF: wavefunction(s)  2P renormalized
               file H.pbe-kjpaw_psl.0.1.upf: wavefunction(s)  1S renormalized

   Task Groups are in USE
   groups and procs/group :     2   12

     bravais-lattice index     =            0
     lattice parameter (alat)  =       1.8897  a.u.
     unit-cell volume          =    3898.2644 (a.u.)^3
     number of atoms/cell      =           26
     number of atomic types    =            3
     number of electrons       =       336.00
     number of Kohn-Sham states=          202
     kinetic-energy cutoff     =      95.0000  Ry
     charge density cutoff     =     800.0000  Ry
     convergence threshold     =      1.0E-08
     mixing beta               =       0.5000
     number of iterations used =            8  local-TF  mixing
     Exchange-correlation      = PBE ( 1 4 3 4 0)
     EXX-fraction              =        0.00

     celldm(1)=   1.889727  celldm(2)=   0.000000  celldm(3)=   0.000000
     celldm(4)=   0.000000  celldm(5)=   0.000000  celldm(6)=   0.000000

     crystal axes: (cart. coord. in units of alat)
               a(1) = (   5.665012   0.000000   0.000000 )
               a(2) = (   0.000000   5.665012   0.000000 )
               a(3) = (   0.000000   0.000000  18.000000 )

     reciprocal axes: (cart. coord. in units 2 pi/alat)
               b(1) = (  0.176522 -0.000000  0.000000 )
               b(2) = (  0.000000  0.176522  0.000000 )
               b(3) = (  0.000000  0.000000  0.055556 )

     PseudoPot. # 1 for Fe read from file:
     /work/e05/e05/ablar/QE_PSEUDO/Fe.pbe-spn-kjpaw_psl.0.2.1.UPF
     MD5 check sum: a0a08122d52b112de96d1da1d7dd020f
     Pseudo is Projector augmented-wave + core cor, Zval = 16.0
     Generated using "atomic" code by A. Dal Corso  v.5.0.2 svn rev. 9415
     Shape of augmentation charge: PSQ
     Using radial grid of 1191 points,  6 beta functions with:
                l(1) =   0
                l(2) =   0
                l(3) =   1
                l(4) =   1
                l(5) =   2
                l(6) =   2
     Q(r) pseudized with 0 coefficients

     PseudoPot. # 2 for  O read from file:
     /work/e05/e05/ablar/QE_PSEUDO/O.pbe-n-kjpaw_psl.0.1.UPF
     MD5 check sum: 1d826bf4880e2aee2c3af49d0719521d
     Pseudo is Projector augmented-wave + core cor, Zval =  6.0
     Generated using "atomic" code by A. Dal Corso  v.5.0.2 svn rev. 9415
     Shape of augmentation charge: BESSEL
     Using radial grid of 1095 points,  4 beta functions with:
                l(1) =   0
                l(2) =   0
                l(3) =   1
                l(4) =   1
     Q(r) pseudized with 0 coefficients

     PseudoPot. # 3 for  H read from file:
     /work/e05/e05/ablar/QE_PSEUDO/H.pbe-kjpaw_psl.0.1.upf
     MD5 check sum: 94e484f906d9e9773b2f6e52662335b2
     Pseudo is Projector augmented-wave, Zval =  1.0
     Generated using "atomic" code by A. Dal Corso  v.5.0.99 svn rev. 10869
     Shape of augmentation charge: PSQ
     Using radial grid of  929 points,  2 beta functions with:
                l(1) =   0
                l(2) =   0
     Q(r) pseudized with 0 coefficients

     atomic species   valence    mass     pseudopotential
        Fe            16.00    55.85000     Fe( 1.00)
        O              6.00    16.00000      O( 1.00)
        H              1.00     1.00000      H( 1.00)

     Starting magnetic structure
     atomic species   magnetization
        Fe           0.600
        O            0.000
        H            0.000

     Simplified LDA+U calculation (l_max = 2) with parameters (eV):
     atomic species    L          U    alpha       J0     beta
        Fe             2     0.0000   0.0000   0.0000   0.0000

     No symmetry found

                                    s                        frac. trans.

      isym =  1     identity

 cryst.   s( 1) = (     1          0          0      )
                  (     0          1          0      )
                  (     0          0          1      )

 cart.    s( 1) = (  1.0000000  0.0000000  0.0000000 )
                  (  0.0000000  1.0000000  0.0000000 )
                  (  0.0000000  0.0000000  1.0000000 )

     point group C_1 (1)
     there are  1 classes
     the character table:

       E
A      1.00

     the symmetry operations in each class:
     E        1

   Cartesian axes

     site n.     atom                  positions (alat units)
         1           Fe  tau(   1) = (   0.0000000   0.0000000  -2.8325049  )
         2           Fe  tau(   2) = (   0.0000000   2.8325049  -2.8325049  )
         3           Fe  tau(   3) = (   2.8325049   0.0000000  -2.8325049  )
         4           Fe  tau(   4) = (   2.8325049   2.8325049  -2.8325049  )
         5           Fe  tau(   5) = (   1.4162524   1.4162524  -1.4162524  )
         6           Fe  tau(   6) = (   1.4162524  -1.4162524  -1.4162524  )
         7           Fe  tau(   7) = (  -1.4162524   1.4162524  -1.4162524  )
         8           Fe  tau(   8) = (  -1.4162524  -1.4162524  -1.4162524  )
         9           Fe  tau(   9) = (   0.0000000   0.0000000   0.0000000  )
        10           Fe  tau(  10) = (   0.0000000   2.8325049   0.0000000  )
        11           Fe  tau(  11) = (   2.8325049   0.0000000   0.0000000  )
        12           Fe  tau(  12) = (   2.8325049   2.8325049   0.0000000  )
        13           Fe  tau(  13) = (   1.4280395   1.4300927   1.4316969  )
        14           Fe  tau(  14) = (   1.4274794  -1.4289515   1.4324648  )
        15           Fe  tau(  15) = (  -1.4271829   1.4237558   1.4287965  )
        16           Fe  tau(  16) = (  -1.4288357  -1.4258811   1.4332682  )
        17           Fe  tau(  17) = (   0.0074442   0.0033211   2.7809186  )
        18           Fe  tau(  18) = (  -0.0190763   2.8313906   2.7985231  )
        19           Fe  tau(  19) = (   2.8342433   0.0049198   2.8019357  )
        20           Fe  tau(  20) = (   2.8360391   2.8240929   2.9665890  )
        21           O   tau(  21) = (  -1.9582235  -0.3040755   5.8185162  )
        22           H   tau(  22) = (  -2.4071128   0.5567646   5.9236510  )
        23           H   tau(  23) = (  -1.3981393  -0.1757164   5.0145921  )
        24           O   tau(  24) = (   2.6368994   2.9149640   5.1896783  )
        25           H   tau(  25) = (   2.9580297   3.8122961   5.4990589  )
        26           H   tau(  26) = (   1.6701295   2.9314923   5.3205064  )

   Crystallographic axes

     site n.     atom                  positions (cryst. coord.)
         1           Fe  tau(   1) = (  0.0000000  0.0000000 -0.1573614  )
         2           Fe  tau(   2) = ( -0.0000000  0.4999998 -0.1573614  )
         3           Fe  tau(   3) = (  0.4999998  0.0000000 -0.1573614  )
         4           Fe  tau(   4) = (  0.4999998  0.4999998 -0.1573614  )
         5           Fe  tau(   5) = (  0.2499999  0.2499999 -0.0786807  )
         6           Fe  tau(   6) = (  0.2499999 -0.2499999 -0.0786807  )
         7           Fe  tau(   7) = ( -0.2499999  0.2499999 -0.0786807  )
         8           Fe  tau(   8) = ( -0.2499999 -0.2499999 -0.0786807  )
         9           Fe  tau(   9) = (  0.0000000  0.0000000  0.0000000  )
        10           Fe  tau(  10) = ( -0.0000000  0.4999998  0.0000000  )
        11           Fe  tau(  11) = (  0.4999998  0.0000000  0.0000000  )
        12           Fe  tau(  12) = (  0.4999998  0.4999998  0.0000000  )
        13           Fe  tau(  13) = (  0.2520806  0.2524430  0.0795387  )
        14           Fe  tau(  14) = (  0.2519817 -0.2522416  0.0795814  )
        15           Fe  tau(  15) = ( -0.2519294  0.2513244  0.0793776  )
        16           Fe  tau(  16) = ( -0.2522211 -0.2516996  0.0796260  )
        17           Fe  tau(  17) = (  0.0013141  0.0005862  0.1544955  )
        18           Fe  tau(  18) = ( -0.0033674  0.4998031  0.1554735  )
        19           Fe  tau(  19) = (  0.5003067  0.0008685  0.1556631  )
        20           Fe  tau(  20) = (  0.5006237  0.4985149  0.1648105  )
        21           O   tau(  21) = ( -0.3456698 -0.0536760  0.3232509  )
        22           H   tau(  22) = ( -0.4249087  0.0982813  0.3290917  )
        23           H   tau(  23) = ( -0.2468025 -0.0310178  0.2785885  )
        24           O   tau(  24) = (  0.4654711  0.5145557  0.2883155  )
        25           H   tau(  25) = (  0.5221577  0.6729546  0.3055033  )
        26           H   tau(  26) = (  0.2948148  0.5174733  0.2955837  )

     number of k points=    20  Marzari-Vanderbilt smearing, width (Ry)=  0.0400
                       cart. coord. in units 2pi/alat
        k(    1) = (   0.0000000   0.0000000   0.0000000), wk =   0.0625000
        k(    2) = (   0.0000000   0.0441305   0.0000000), wk =   0.1250000
        k(    3) = (   0.0000000  -0.0882611   0.0000000), wk =   0.0625000
        k(    4) = (   0.0441305   0.0441305   0.0000000), wk =   0.1250000
        k(    5) = (   0.0441305  -0.0882611   0.0000000), wk =   0.1250000
        k(    6) = (  -0.0882611  -0.0882611   0.0000000), wk =   0.0625000
        k(    7) = (   0.0441305  -0.0000000   0.0000000), wk =   0.1250000
        k(    8) = (  -0.0882611   0.0000000   0.0000000), wk =   0.0625000
        k(    9) = (  -0.0441305   0.0441305   0.0000000), wk =   0.1250000
        k(   10) = (  -0.0882611   0.0441305   0.0000000), wk =   0.1250000
        k(   11) = (   0.0000000   0.0000000   0.0000000), wk =   0.0625000
        k(   12) = (   0.0000000   0.0441305   0.0000000), wk =   0.1250000
        k(   13) = (   0.0000000  -0.0882611   0.0000000), wk =   0.0625000
        k(   14) = (   0.0441305   0.0441305   0.0000000), wk =   0.1250000
        k(   15) = (   0.0441305  -0.0882611   0.0000000), wk =   0.1250000
        k(   16) = (  -0.0882611  -0.0882611   0.0000000), wk =   0.0625000
        k(   17) = (   0.0441305  -0.0000000   0.0000000), wk =   0.1250000
        k(   18) = (  -0.0882611   0.0000000   0.0000000), wk =   0.0625000
        k(   19) = (  -0.0441305   0.0441305   0.0000000), wk =   0.1250000
        k(   20) = (  -0.0882611   0.0441305   0.0000000), wk =   0.1250000

                       cryst. coord.
        k(    1) = (   0.0000000   0.0000000   0.0000000), wk =   0.0625000
        k(    2) = (   0.0000000   0.2500000   0.0000000), wk =   0.1250000
[...]

     Forces acting on atoms (Ry/au):

     negative rho (up, down):  0.106E-04 0.125E-02
     atom    1 type  1   force =    -0.00004981    0.00001898    0.00347665
     atom    2 type  1   force =    -0.00001535   -0.00002951    0.00378692
     atom    3 type  1   force =     0.00009259    0.00004321    0.00369057
     atom    4 type  1   force =     0.00002627   -0.00004645    0.00333283
     atom    5 type  1   force =     0.00000099    0.00004607   -0.00692118
     atom    6 type  1   force =     0.00004787   -0.00007635   -0.00678915
     atom    7 type  1   force =     0.00008696    0.00002049   -0.00683749
     atom    8 type  1   force =     0.00001610   -0.00008730   -0.00682535
     atom    9 type  1   force =     0.00031296   -0.00004742    0.00202360
     atom   10 type  1   force =    -0.00060329    0.00019587    0.00296981
     atom   11 type  1   force =    -0.00046505   -0.00022569    0.00300700
     atom   12 type  1   force =     0.00033667    0.00011695    0.00498963
     atom   13 type  1   force =     0.00005014   -0.00004075   -0.00002578
     atom   14 type  1   force =    -0.00001821   -0.00007266    0.00004046
     atom   15 type  1   force =     0.00008093    0.00007054    0.00001337
     atom   16 type  1   force =     0.00005484   -0.00000095    0.00004699
     atom   17 type  1   force =     0.00002110   -0.00000474   -0.00000844
     atom   18 type  1   force =     0.00001268    0.00003305    0.00009197
     atom   19 type  1   force =     0.00000584   -0.00006832    0.00001108
     atom   20 type  1   force =    -0.00008431   -0.00004572    0.00003549
     atom   21 type  2   force =    -0.00000230    0.00008320   -0.00000405
     atom   22 type  3   force =    -0.00003909    0.00007085    0.00000946
     atom   23 type  3   force =     0.00002311    0.00003494   -0.00001942
     atom   24 type  2   force =     0.00002432    0.00003828   -0.00006289
     atom   25 type  3   force =     0.00005961    0.00000162   -0.00001425
     atom   26 type  3   force =     0.00002443   -0.00002819   -0.00001783
     The non-local contrib.  to forces
     atom    1 type  1   force =    -0.00013487    0.00007691   -0.39068012
     atom    2 type  1   force =     0.00022905   -0.00005022   -0.38901737
     atom    3 type  1   force =     0.00003199   -0.00028713   -0.38772821
     atom    4 type  1   force =    -0.00010589    0.00024981   -0.38604546
     atom    5 type  1   force =    -0.00053363   -0.00059755   -0.03446383
     atom    6 type  1   force =    -0.00092117    0.00068191   -0.03437587
     atom    7 type  1   force =     0.00056649   -0.00026979   -0.03399926
     atom    8 type  1   force =     0.00092815    0.00026869   -0.03382569
     atom    9 type  1   force =     0.00028247   -0.00005692   -0.00827869
     atom   10 type  1   force =    -0.00019380    0.00019138   -0.00339971
     atom   11 type  1   force =     0.00068581    0.00032509   -0.00243108
     atom   12 type  1   force =    -0.00031653   -0.00038880    0.00782622
     atom   13 type  1   force =    -0.01510534   -0.01418806    0.02770983
     atom   14 type  1   force =    -0.01444630    0.01330409    0.02805588
     atom   15 type  1   force =     0.01619541   -0.01361871    0.03188684
     atom   16 type  1   force =     0.01602142    0.01265352    0.03202542
     atom   17 type  1   force =     0.00984387    0.00170078    0.31675800
     atom   18 type  1   force =     0.00404690   -0.00006241    0.35736426
     atom   19 type  1   force =     0.00017384   -0.00969113    0.38993544
     atom   20 type  1   force =    -0.00224338    0.00250954    0.37236154
     atom   21 type  2   force =    -0.02169762    1.66891116   -1.25215671
     atom   22 type  3   force =     0.04964054   -0.09380091   -0.01365897
     atom   23 type  3   force =    -0.05792758   -0.01058408    0.08054665
     atom   24 type  2   force =    -1.25291869    1.45786231    0.43488351
     atom   25 type  3   force =    -0.03327859   -0.08501991   -0.02947798
     atom   26 type  3   force =     0.10578978    0.00069622   -0.01354164
     The ionic contribution  to forces
     atom    1 type  1   force =     0.00523431   -0.00361235 -261.13962251
     atom    2 type  1   force =     0.00369986    0.00360816 -261.15614937
     atom    3 type  1   force =    -0.00523442   -0.00351687 -261.16102940
     atom    4 type  1   force =    -0.00367702    0.00351449 -261.16540650
     atom    5 type  1   force =    -0.04600305   -0.03542486 -143.33806589
     atom    6 type  1   force =    -0.04604773    0.03462822 -143.31406958
     atom    7 type  1   force =     0.04527862   -0.01981346 -143.39251557
     atom    8 type  1   force =     0.04695033    0.02148547 -143.33814225
     atom    9 type  1   force =     0.13134958   -0.07481625  -10.96659471
     atom   10 type  1   force =     0.03889783    0.06706444  -11.30443243
     atom   11 type  1   force =    -0.14333641   -0.06854876  -11.44905695
     atom   12 type  1   force =    -0.02545337    0.06297575  -10.72606710
     atom   13 type  1   force =     0.06026476    0.48161593  121.98624758
     atom   14 type  1   force =     0.13993792   -0.49428235  122.09634229
     atom   15 type  1   force =    -0.12943588    0.45731610  121.34006557
     atom   16 type  1   force =    -0.16877628   -0.40978765  121.62164069
     atom   17 type  1   force =     0.98768262    0.18048660  239.47724305
     atom   18 type  1   force =     0.67218234   -0.20290759  239.94842755
     atom   19 type  1   force =    -1.18551306    0.29315325  237.09667165
     atom   20 type  1   force =    -0.09321646   -0.56748465  237.54964782
     atom   21 type  2   force =     1.34710854   -1.67412946   78.48275713
     atom   22 type  3   force =    -1.55352763    2.92529538   12.87273351
     atom   23 type  3   force =     2.29557246    0.45800183   12.33748332
     atom   24 type  2   force =     0.73465555   -3.52193208   88.29976854
     atom   25 type  3   force =     0.73552395    2.19028893   14.60844268
     atom   26 type  3   force =    -3.84411734   -0.10317821   14.73368086
     The local contribution  to forces
     atom    1 type  1   force =    -0.00514296    0.00355687  261.54655150
     atom    2 type  1   force =    -0.00394483   -0.00359032  261.56181771
     atom    3 type  1   force =     0.00527919    0.00383606  261.56532057
     atom    4 type  1   force =     0.00382075   -0.00381449  261.56778541
     atom    5 type  1   force =     0.04646715    0.03603877  143.36601094
     atom    6 type  1   force =     0.04693177   -0.03533289  143.34207929
     atom    7 type  1   force =    -0.04570919    0.02005652  143.42004926
     atom    8 type  1   force =    -0.04780170   -0.02176393  143.36554922
     atom    9 type  1   force =    -0.13139418    0.07484741   10.97646442
     atom   10 type  1   force =    -0.03921263   -0.06705279   11.31060286
     atom   11 type  1   force =     0.14219128    0.06800012   11.45422679
     atom   12 type  1   force =     0.02609181   -0.06245541   10.72344254
     atom   13 type  1   force =    -0.04517415   -0.46759525 -122.01390764
     atom   14 type  1   force =    -0.12566472    0.48110765 -122.12434437
     atom   15 type  1   force =     0.11353454   -0.44376591 -121.37202401
     atom   16 type  1   force =     0.15298761    0.39716993 -121.65365671
     atom   17 type  1   force =    -0.99820693   -0.18234849 -239.80526004
     atom   18 type  1   force =    -0.67584891    0.20308785 -240.31748276
     atom   19 type  1   force =     1.18565875   -0.28345721 -237.49831593
     atom   20 type  1   force =     0.09565308    0.56466768 -237.93891915
     atom   21 type  2   force =    -1.32582827    0.02150195  -77.24249128
     atom   22 type  3   force =     1.50384914   -2.83142467  -12.85904804
     atom   23 type  3   force =    -2.23762020   -0.44738233  -12.41803290
     atom   24 type  2   force =     0.50615367    2.07799483  -88.73066434
     atom   25 type  3   force =    -0.70218393   -2.10526383  -14.57896110
     atom   26 type  3   force =     3.73834681    0.10245323  -14.72014070
     The core correction contribution to forces
     atom    1 type  1   force =    -0.00000645   -0.00000368   -0.01271100
     atom    2 type  1   force =     0.00000084    0.00000359   -0.01281154
     atom    3 type  1   force =     0.00001602    0.00000970   -0.01282200
     atom    4 type  1   force =    -0.00001166    0.00000424   -0.01295160
     atom    5 type  1   force =     0.00004319    0.00001585   -0.00036137
     atom    6 type  1   force =     0.00005759   -0.00003990   -0.00038454
     atom    7 type  1   force =    -0.00002131    0.00003258   -0.00033782
     atom    8 type  1   force =    -0.00003325   -0.00006326   -0.00036687
     atom    9 type  1   force =     0.00007884   -0.00002529    0.00049479
     atom   10 type  1   force =    -0.00009043   -0.00000365    0.00026866
     atom   11 type  1   force =    -0.00000892   -0.00000587    0.00033707
     atom   12 type  1   force =     0.00001051   -0.00001150   -0.00014238
     atom   13 type  1   force =     0.00004644    0.00012128    0.00002598
     atom   14 type  1   force =     0.00013596   -0.00019760    0.00008635
     atom   15 type  1   force =    -0.00019446    0.00013462    0.00018926
     atom   16 type  1   force =    -0.00015863   -0.00003292    0.00013860
     atom   17 type  1   force =     0.00070130    0.00015505    0.01131896
     atom   18 type  1   force =    -0.00036297   -0.00008289    0.01185775
     atom   19 type  1   force =    -0.00031459   -0.00007284    0.01179129
     atom   20 type  1   force =    -0.00027735    0.00026028    0.01697218
     atom   21 type  2   force =     0.00042775   -0.01618967    0.01192613
     atom   22 type  3   force =     0.00000000    0.00000000    0.00000000
     atom   23 type  3   force =     0.00000000    0.00000000    0.00000000
     atom   24 type  2   force =     0.01213280   -0.01389225   -0.00402646
     atom   25 type  3   force =     0.00000000    0.00000000    0.00000000
     atom   26 type  3   force =     0.00000000    0.00000000    0.00000000
     The Hubbard contrib.    to forces
     atom    1 type  1   force =     0.00000000   -0.00000000   -0.00000000
     atom    2 type  1   force =    -0.00000000    0.00000000   -0.00000000
     atom    3 type  1   force =     0.00000000    0.00000000   -0.00000000
     atom    4 type  1   force =     0.00000000   -0.00000000   -0.00000000
     atom    5 type  1   force =     0.00000000    0.00000000   -0.00000000
     atom    6 type  1   force =     0.00000000   -0.00000000   -0.00000000
     atom    7 type  1   force =    -0.00000000    0.00000000   -0.00000000
     atom    8 type  1   force =    -0.00000000   -0.00000000   -0.00000000
     atom    9 type  1   force =    -0.00000000    0.00000000   -0.00000000
     atom   10 type  1   force =     0.00000000   -0.00000000   -0.00000000
     atom   11 type  1   force =     0.00000000    0.00000000   -0.00000000
     atom   12 type  1   force =    -0.00000000   -0.00000000   -0.00000000
     atom   13 type  1   force =    -0.00000000   -0.00000000    0.00000000
     atom   14 type  1   force =    -0.00000000    0.00000000    0.00000000
     atom   15 type  1   force =     0.00000000   -0.00000000    0.00000000
     atom   16 type  1   force =     0.00000000    0.00000000    0.00000000
     atom   17 type  1   force =     0.00000000   -0.00000000    0.00000000
     atom   18 type  1   force =     0.00000000    0.00000000    0.00000000
     atom   19 type  1   force =    -0.00000000   -0.00000000    0.00000000
     atom   20 type  1   force =     0.00000000   -0.00000000    0.00000000
     atom   21 type  2   force =     0.00000000    0.00000000   -0.00000000
     atom   22 type  3   force =    -0.00000000    0.00000000    0.00000000
     atom   23 type  3   force =     0.00000000    0.00000000   -0.00000000
     atom   24 type  2   force =    -0.00000000   -0.00000000   -0.00000000
     atom   25 type  3   force =     0.00000000    0.00000000    0.00000000
     atom   26 type  3   force =    -0.00000000   -0.00000000   -0.00000000
     The SCF correction term to forces
     atom    1 type  1   force =     0.00000000    0.00000000    0.00000000
     atom    2 type  1   force =     0.00000000    0.00000000    0.00000000
     atom    3 type  1   force =     0.00000000    0.00000000    0.00000000
     atom    4 type  1   force =     0.00000000    0.00000000    0.00000000
     atom    5 type  1   force =     0.00000000    0.00000000    0.00000000
     atom    6 type  1   force =     0.00000000    0.00000000    0.00000000
     atom    7 type  1   force =     0.00000000    0.00000000    0.00000000
     atom    8 type  1   force =     0.00000000    0.00000000    0.00000000
     atom    9 type  1   force =     0.00000000    0.00000000    0.00000000
     atom   10 type  1   force =     0.00000000    0.00000000    0.00000000
     atom   11 type  1   force =     0.00000000    0.00000000    0.00000000
     atom   12 type  1   force =     0.00000000    0.00000000    0.00000000
     atom   13 type  1   force =     0.00001846    0.00000514   -0.00008735
     atom   14 type  1   force =     0.00001897   -0.00000467   -0.00008551
     atom   15 type  1   force =    -0.00001863    0.00000422   -0.00009012
     atom   16 type  1   force =    -0.00001923   -0.00000404   -0.00008683
     atom   17 type  1   force =     0.00000028    0.00000110   -0.00005424
     atom   18 type  1   force =    -0.00000463   -0.00000212   -0.00006065
     atom   19 type  1   force =     0.00000095   -0.00000060   -0.00005720
     atom   20 type  1   force =    -0.00000017    0.00000122   -0.00001272
     atom   21 type  2   force =    -0.00001265   -0.00001099   -0.00002513
     atom   22 type  3   force =    -0.00000110    0.00000084   -0.00000287
     atom   23 type  3   force =    -0.00000154   -0.00000068   -0.00000232
     atom   24 type  2   force =     0.00000103    0.00000525   -0.00000996
     atom   25 type  3   force =    -0.00000179   -0.00000379   -0.00000367
     atom   26 type  3   force =     0.00000521    0.00000035   -0.00000218

     Total force =     0.000286     Total SCF correction =     0.000208
     SCF correction compared to forces is large: reduce conv_thr to get better values

     entering subroutine stress ...

     negative rho (up, down):  0.106E-04 0.125E-02
          total   stress  (Ry/bohr**3)                   (kbar)     P=  -14.43
  -0.00013869  -0.00000036   0.00000021        -20.40     -0.05      0.03
  -0.00000036  -0.00015662   0.00000037         -0.05    -23.04      0.05
   0.00000021   0.00000037   0.00000102          0.03      0.05      0.15

     kinetic stress (kbar)  32701.29      3.57     44.29
                                3.57  32707.16    -21.57
                               44.29    -21.57  32652.45

     local   stress (kbar)-822875.49   -177.15     60.64
                             -177.15-824137.85   -215.07
                               60.64   -215.07 871637.89

     nonloc. stress (kbar) -24621.75      0.97      2.87
                                0.97 -24621.37     -1.03
                                2.87     -1.03 -24543.67

     hartree stress (kbar) 436831.20     75.54      4.10
                               75.54 437414.73     78.94
                                4.10     78.94-401018.88

     exc-cor stress (kbar)  -1199.42      0.19     -0.58
                                0.19  -1198.93      0.40
                               -0.58      0.40  -1205.20

     corecor stress (kbar)  -6614.48     -0.02     -0.10
                               -0.02  -6614.44      0.04
                               -0.10      0.04  -6613.25

     ewald   stress (kbar) 385758.25     96.85   -111.19
                               96.85 386427.67    158.34
                             -111.19    158.34-470909.19

     hubbard stress (kbar)     -0.00     -0.00     -0.00
                               -0.00     -0.00      0.00
                               -0.00      0.00     -0.00

     london  stress (kbar)      0.00      0.00      0.00
                                0.00      0.00      0.00
                                0.00      0.00      0.00

     dft-nl  stress (kbar)      0.00      0.00      0.00
                                0.00      0.00      0.00
                                0.00      0.00      0.00

     Writing output data file Fe_100_2x2_H2O_top_5ML.save

     General routines

     Parallel routines
     Hubbard U routines

     PAW routines

   This run was terminated on:  11:20:41  14Dec2015

   JOB DONE.
Application 19409687 resources: utime ~137255s, stime ~4035s, Rss ~347104, inblocks ~6427409001, outblocks ~1028945328