     Program PWSCF v.5.0.2 (svn rev. 9656) starts on  5Aug2015 at  3:48:19

     Current dimensions of program PWSCF are:
     Max number of different atomic species (ntypx) = 10
     Max number of k-points (npk) =  40000
     Max angular momentum in pseudopotentials (lmaxx) =  3
     Reading input from Fe_100_2x2_scf.in
Warning: card  &CELL ignored
Warning: card    PRESS=0.0 ignored
Warning: card    PRESS_CONV_THR=0.1 ignored
Warning: card  / ignored

     IMPORTANT: XC functional enforced from input :
     Exchange-correlation      = PBE ( 1 4 3 4 0)
     EXX-fraction              =        0.00
     Any further DFT definition will be discarded
     Please, verify this is what you really want

               file Fe.pbe-spn-kjpaw_psl.0.2.1.UPF: wavefunction(s)  3D renormalized

     Found symmetry operation: I + ( -0.0000  0.5000  0.0000)
     This is a supercell, fractional translations are disabled

   Task Groups are in USE
   groups and procs/group :     2    6

     bravais-lattice index     =            0
     lattice parameter (alat)  =       1.8897  a.u.
     unit-cell volume          =    3898.2644 (a.u.)^3
     number of atoms/cell      =           20
     number of atomic types    =            1
     number of electrons       =       320.00
     number of Kohn-Sham states=          192
     kinetic-energy cutoff     =      95.0000  Ry
     charge density cutoff     =     800.0000  Ry
     convergence threshold     =      1.0E-08
     mixing beta               =       0.5000
     number of iterations used =            8  local-TF  mixing
     Exchange-correlation      = PBE ( 1 4 3 4 0)
     EXX-fraction              =        0.00
     nstep                     =         1000

     celldm(1)=   1.889727  celldm(2)=   0.000000  celldm(3)=   0.000000
     celldm(4)=   0.000000  celldm(5)=   0.000000  celldm(6)=   0.000000

     crystal axes: (cart. coord. in units of alat)
               a(1) = (   5.665012   0.000000   0.000000 )
               a(2) = (   0.000000   5.665012   0.000000 )
               a(3) = (   0.000000   0.000000  18.000000 )

     reciprocal axes: (cart. coord. in units 2 pi/alat)
               b(1) = (  0.176522 -0.000000  0.000000 )
               b(2) = (  0.000000  0.176522  0.000000 )
               b(3) = (  0.000000  0.000000  0.055556 )

     PseudoPot. # 1 for Fe read from file:
     /work/e05/e05/ablar/QE_PSEUDO/Fe.pbe-spn-kjpaw_psl.0.2.1.UPF
     MD5 check sum: a0a08122d52b112de96d1da1d7dd020f
     Pseudo is Projector augmented-wave + core cor, Zval = 16.0
     Generated using "atomic" code by A. Dal Corso  v.5.0.2 svn rev. 9415
     Shape of augmentation charge: PSQ
     Using radial grid of 1191 points,  6 beta functions with:
                l(1) =   0
                l(2) =   0
                l(3) =   1
                l(4) =   1
                l(5) =   2
                l(6) =   2
     Q(r) pseudized with 0 coefficients

     atomic species   valence    mass     pseudopotential
        Fe            16.00    55.85000     Fe( 1.00)

     Starting magnetic structure
     atomic species   magnetization
        Fe           0.600

     Simplified LDA+U calculation (l_max = 2) with parameters (eV):
     atomic species    L          U    alpha       J0     beta
        Fe             2     0.0000   0.0000   0.0000   0.0000

      8 Sym. Ops. (no inversion) found

                                    s                        frac. trans.

      isym =  1     identity

 cryst.   s( 1) = (     1          0          0      )
                  (     0          1          0      )
                  (     0          0          1      )

 cart.    s( 1) = (  1.0000000  0.0000000  0.0000000 )
                  (  0.0000000  1.0000000  0.0000000 )
                  (  0.0000000  0.0000000  1.0000000 )

      isym =  2     180 deg rotation - cart. axis [0,0,1]

[...]

      isym =  4      90 deg rotation - cart. axis [0,0,1]

[...]

      isym =  5     inv. 180 deg rotation - cart. axis [0,1,0]

[...]

      isym =  8     inv. 180 deg rotation - cart. axis [1,-1,0]

 cryst.   s( 8) = (     0          1          0      )
                  (     1          0          0      )
                  (     0          0          1      )

 cart.    s( 8) = (  0.0000000  1.0000000  0.0000000 )
                  (  1.0000000 -0.0000000  0.0000000 )
                  (  0.0000000  0.0000000  1.0000000 )

     point group C_4v (4mm)
     there are  5 classes
     the character table:

       E     2C4   C2    2s_v  2s_d
A_1    1.00  1.00  1.00  1.00  1.00
A_2    1.00  1.00  1.00 -1.00 -1.00
B_1    1.00 -1.00  1.00  1.00 -1.00
B_2    1.00 -1.00  1.00 -1.00  1.00
E      2.00  0.00 -2.00  0.00  0.00

     the symmetry operations in each class:
     E        1
     C2       2
     2C4      3    4
     2s_v     5    6
     2s_d     7    8

   Cartesian axes

     site n.     atom                  positions (alat units)
         1           Fe  tau(   1) = (   0.0000000   0.0000000  -2.8325049  )
         2           Fe  tau(   2) = (   0.0000000   2.8325049  -2.8325049  )
         3           Fe  tau(   3) = (   2.8325049   0.0000000  -2.8325049  )
         4           Fe  tau(   4) = (   2.8325049   2.8325049  -2.8325049  )
         5           Fe  tau(   5) = (   1.4162524   1.4162524  -1.4162524  )
         6           Fe  tau(   6) = (   1.4162524  -1.4162524  -1.4162524  )
         7           Fe  tau(   7) = (  -1.4162524   1.4162524  -1.4162524  )
         8           Fe  tau(   8) = (  -1.4162524  -1.4162524  -1.4162524  )
         9           Fe  tau(   9) = (   0.0000000   0.0000000   0.0000000  )
        10           Fe  tau(  10) = (   0.0000000   2.8325049   0.0000000  )
        11           Fe  tau(  11) = (   2.8325049   0.0000000   0.0000000  )
        12           Fe  tau(  12) = (   2.8325049   2.8325049   0.0000000  )
        13           Fe  tau(  13) = (   1.4162555   1.4162555   1.4328982  )
        14           Fe  tau(  14) = (   1.4162555  -1.4162555   1.4328982  )
        15           Fe  tau(  15) = (  -1.4162555   1.4162555   1.4328982  )
        16           Fe  tau(  16) = (  -1.4162555  -1.4162555   1.4328982  )
        17           Fe  tau(  17) = (   0.0000000   0.0000000   2.8288737  )
        18           Fe  tau(  18) = (   0.0000000   2.8325049   2.8288713  )
        19           Fe  tau(  19) = (   2.8325049   0.0000000   2.8288713  )
        20           Fe  tau(  20) = (   2.8325049   2.8325049   2.8288980  )

   Crystallographic axes

     site n.     atom                  positions (cryst. coord.)
         1           Fe  tau(   1) = (  0.0000000  0.0000000 -0.1573614  )
         2           Fe  tau(   2) = ( -0.0000000  0.4999998 -0.1573614  )
         3           Fe  tau(   3) = (  0.4999998  0.0000000 -0.1573614  )
         4           Fe  tau(   4) = (  0.4999998  0.4999998 -0.1573614  )
         5           Fe  tau(   5) = (  0.2499999  0.2499999 -0.0786807  )
         6           Fe  tau(   6) = (  0.2499999 -0.2499999 -0.0786807  )
         7           Fe  tau(   7) = ( -0.2499999  0.2499999 -0.0786807  )
         8           Fe  tau(   8) = ( -0.2499999 -0.2499999 -0.0786807  )
         9           Fe  tau(   9) = (  0.0000000  0.0000000  0.0000000  )
        10           Fe  tau(  10) = ( -0.0000000  0.4999998  0.0000000  )
        11           Fe  tau(  11) = (  0.4999998  0.0000000  0.0000000  )
        12           Fe  tau(  12) = (  0.4999998  0.4999998  0.0000000  )
        13           Fe  tau(  13) = (  0.2500004  0.2500004  0.0796055  )
        14           Fe  tau(  14) = (  0.2500004 -0.2500004  0.0796055  )
        15           Fe  tau(  15) = ( -0.2500004  0.2500004  0.0796055  )
        16           Fe  tau(  16) = ( -0.2500004 -0.2500004  0.0796055  )
        17           Fe  tau(  17) = (  0.0000000  0.0000000  0.1571596  )
        18           Fe  tau(  18) = ( -0.0000000  0.4999998  0.1571595  )
        19           Fe  tau(  19) = (  0.4999998  0.0000000  0.1571595  )
        20           Fe  tau(  20) = (  0.4999998  0.4999998  0.1571610  )

     number of k points=    12  Marzari-Vanderbilt smearing, width (Ry)=  0.0400
                       cart. coord. in units 2pi/alat
        k(    1) = (   0.0000000   0.0000000   0.0000000), wk =   0.0625000
        k(    2) = (   0.0000000   0.0441305   0.0000000), wk =   0.2500000
        k(    3) = (   0.0000000  -0.0882611   0.0000000), wk =   0.1250000
        k(    4) = (   0.0441305   0.0441305   0.0000000), wk =   0.2500000
        k(    5) = (   0.0441305  -0.0882611   0.0000000), wk =   0.2500000
        k(    6) = (  -0.0882611  -0.0882611   0.0000000), wk =   0.0625000
        k(    7) = (   0.0000000   0.0000000   0.0000000), wk =   0.0625000
        k(    8) = (   0.0000000   0.0441305   0.0000000), wk =   0.2500000
        k(    9) = (   0.0000000  -0.0882611   0.0000000), wk =   0.1250000
        k(   10) = (   0.0441305   0.0441305   0.0000000), wk =   0.2500000
        k(   11) = (   0.0441305  -0.0882611   0.0000000), wk =   0.2500000
        k(   12) = (  -0.0882611  -0.0882611   0.0000000), wk =   0.0625000

                       cryst. coord.
        k(    1) = (   0.0000000   0.0000000   0.0000000), wk =   0.0625000
        k(    2) = (   0.0000000   0.2500000   0.0000000), wk =   0.2500000
        k(    3) = (   0.0000000  -0.5000000   0.0000000), wk =   0.1250000
        k(    4) = (   0.2500000   0.2500000   0.0000000), wk =   0.2500000
        k(    5) = (   0.2500000  -0.5000000   0.0000000), wk =   0.2500000
        k(    6) = (  -0.5000000  -0.5000000   0.0000000), wk =   0.0625000
        k(    7) = (   0.0000000   0.0000000   0.0000000), wk =   0.0625000
        k(    8) = (   0.0000000   0.2500000   0.0000000), wk =   0.2500000
        k(    9) = (   0.0000000  -0.5000000   0.0000000), wk =   0.1250000
        k(   10) = (   0.2500000   0.2500000   0.0000000), wk =   0.2500000
        k(   11) = (   0.2500000  -0.5000000   0.0000000), wk =   0.2500000
        k(   12) = (  -0.5000000  -0.5000000   0.0000000), wk =   0.0625000

     Largest allocated arrays     est. size (Mb)     dimensions
     Largest temporary arrays     est. size (Mb)     dimensions

     Check: negative/imaginary core charge=   -0.000011    0.000000

     Initial potential from superposition of free atoms

     starting charge  319.99123, renormalised to  320.00000

     negative rho (up, down):  0.491E-04 0.123E-04
 --- in v_hubbard ---
Hubbard energy    0.0000
     Number of +U iterations with fixed ns =  0
     Starting occupations:
 --- enter write_ns ---
 LDA+U parameters:
U( 1)     =  0.00000000
alpha( 1) =  0.00000000
atom    1   Tr[ns(na)] (up, down, total) =   5.00000  1.00000  6.00000
   spin  1
    eigenvalues:
  1.000  1.000  1.000  1.000  1.000
    eigenvectors:
  1.000  0.000  0.000  0.000  0.000
  0.000  1.000  0.000  0.000  0.000
  0.000  0.000  1.000  0.000  0.000
  0.000  0.000  0.000  1.000  0.000
  0.000  0.000  0.000  0.000  1.000
    occupations:
  1.000  0.000  0.000  0.000  0.000
  0.000  1.000  0.000  0.000  0.000
  0.000  0.000  1.000  0.000  0.000
  0.000  0.000  0.000  1.000  0.000
  0.000  0.000  0.000  0.000  1.000
   spin  2
[...]
     1.0001   1.0001   1.0001   1.0001   1.0005   1.0005   1.0005   1.0005
     1.0005   1.0005   1.0005   1.0005   1.0049   1.0049   1.0049   1.0049
     1.0089   1.0089   1.0089   1.0089   1.0276   1.0276   1.0276   1.0276
     1.0387   1.0387   1.0387   1.0387   1.0438   1.0438   1.0438   1.0438
     1.0829   1.0829   1.0828   1.0828   0.1554   0.1554   0.1554   0.1554
     0.1313   0.1313   0.1313   0.1313   0.1200   0.1200   0.1200   0.1200
     0.1091   0.1091   0.1091   0.1091   0.0008   0.0008   0.0008   0.0008
     0.0001   0.0001   0.0001   0.0001   0.0000   0.0000   0.0000   0.0000
     0.0000   0.0000   0.0000   0.0000   0.0000   0.0000   0.0000   0.0000
     0.0000   0.0000   0.0000   0.0000   0.0000   0.0000   0.0000   0.0000
     0.0000   0.0000   0.0000   0.0000   0.0000   0.0000   0.0000   0.0000
     0.0000   0.0000   0.0000   0.0000   0.0000   0.0000   0.0000   0.0000

     the Fermi energy is     5.0286 ev

!    total energy              =   -6584.66668153 Ry
     Harris-Foulkes estimate   =   -6584.66668153 Ry
     estimated scf accuracy    <          4.5E-09 Ry

     total all-electron energy =    -50910.597392 Ry

     The total energy is the sum of the following terms:

     one-electron contribution =  -25983.38861453 Ry
     hartree contribution      =   13046.63205965 Ry
     xc contribution           =    -696.25203498 Ry
     ewald contribution        =    8571.22756475 Ry
     Hubbard energy            =       0.00000000 Ry
     one-center paw contrib.   =   -1522.97981632 Ry
     smearing contrib. (-TS)   =       0.09415991 Ry

     total magnetization       =    51.91 Bohr mag/cell
     absolute magnetization    =    54.11 Bohr mag/cell

     convergence has been achieved in  24 iterations

     Forces acting on atoms (Ry/au):

     negative rho (up, down):  0.520E-04 0.137E-02
     atom    1 type  1   force =     0.00000000    0.00000000    0.00369048
     atom    2 type  1   force =     0.00000000    0.00000000    0.00366820
     atom    3 type  1   force =     0.00000000    0.00000000    0.00366820
     atom    4 type  1   force =     0.00000000    0.00000000    0.00366780
     atom    5 type  1   force =    -0.00000115   -0.00000115   -0.00658001
     atom    6 type  1   force =    -0.00000115    0.00000115   -0.00658001
     atom    7 type  1   force =     0.00000115   -0.00000115   -0.00658001
     atom    8 type  1   force =     0.00000115    0.00000115   -0.00658001
     atom    9 type  1   force =     0.00000000    0.00000000    0.00289423
     atom   10 type  1   force =     0.00000000    0.00000000    0.00288979
     atom   11 type  1   force =     0.00000000    0.00000000    0.00288979
     atom   12 type  1   force =     0.00000000    0.00000000    0.00289065
     atom   13 type  1   force =    -0.00000441   -0.00000441   -0.00002065
     atom   14 type  1   force =    -0.00000441    0.00000441   -0.00002065
     atom   15 type  1   force =     0.00000441   -0.00000441   -0.00002065
     atom   16 type  1   force =     0.00000441    0.00000441   -0.00002065
     atom   17 type  1   force =     0.00000000    0.00000000    0.00003726
     atom   18 type  1   force =     0.00000000    0.00000000    0.00003279
     atom   19 type  1   force =     0.00000000    0.00000000    0.00003279
     atom   20 type  1   force =     0.00000000    0.00000000    0.00004065
     The non-local contrib.  to forces
     atom    1 type  1   force =     0.00000000    0.00000000   -0.38987901
     atom    2 type  1   force =     0.00000000    0.00000000   -0.38990274
     atom    3 type  1   force =     0.00000000    0.00000000   -0.38990274
     atom    4 type  1   force =     0.00000000    0.00000000   -0.38990331
     atom    5 type  1   force =    -0.00000094   -0.00000094   -0.03229944
     atom    6 type  1   force =    -0.00000094    0.00000094   -0.03229944
     atom    7 type  1   force =     0.00000094   -0.00000094   -0.03229944
     atom    8 type  1   force =     0.00000094    0.00000094   -0.03229944
     atom    9 type  1   force =     0.00000000    0.00000000   -0.00253986
     atom   10 type  1   force =     0.00000000    0.00000000   -0.00254372
     atom   11 type  1   force =     0.00000000    0.00000000   -0.00254372
     atom   12 type  1   force =     0.00000000    0.00000000   -0.00254032
     atom   13 type  1   force =    -0.00000501   -0.00000501    0.03477810
     atom   14 type  1   force =    -0.00000501    0.00000501    0.03477810
     atom   15 type  1   force =     0.00000501   -0.00000501    0.03477810
     atom   16 type  1   force =     0.00000501    0.00000501    0.03477810
     atom   17 type  1   force =     0.00000000    0.00000000    0.38434512
     atom   18 type  1   force =     0.00000000    0.00000000    0.38433734
     atom   19 type  1   force =     0.00000000    0.00000000    0.38433734
     atom   20 type  1   force =     0.00000000    0.00000000    0.38436144
     The ionic contribution  to forces
     atom    1 type  1   force =    -0.00004302   -0.00004302 -259.12065514
     atom    2 type  1   force =    -0.00004302    0.00005778 -259.12062183
     atom    3 type  1   force =     0.00005778   -0.00004302 -259.12062183
     atom    4 type  1   force =     0.00005778    0.00005778 -259.12058568
     atom    5 type  1   force =     0.00002350    0.00002350 -136.89091624
     atom    6 type  1   force =     0.00002350   -0.00005297 -136.89091374
     atom    7 type  1   force =    -0.00005297    0.00002350 -136.89091374
     atom    8 type  1   force =    -0.00005297   -0.00005297 -136.89091125
     atom    9 type  1   force =    -0.00004837   -0.00004837   -0.27746711
     atom   10 type  1   force =    -0.00004837    0.00007739   -0.27765937
     atom   11 type  1   force =     0.00007739   -0.00004837   -0.27765937
     atom   12 type  1   force =     0.00007739    0.00007739   -0.27760554
     atom   13 type  1   force =    -0.00001662   -0.00001662  137.15482029
     atom   14 type  1   force =    -0.00001662   -0.00001295  137.15481866
     atom   15 type  1   force =    -0.00001295   -0.00001662  137.15481866
     atom   16 type  1   force =    -0.00001295   -0.00001295  137.15481702
     atom   17 type  1   force =    -0.00004304   -0.00004304  259.13409057
     atom   18 type  1   force =    -0.00004304    0.00005831  259.13404920
     atom   19 type  1   force =     0.00005831   -0.00004304  259.13404920
     atom   20 type  1   force =     0.00005831    0.00005831  259.13506723
     The local contribution  to forces
     atom    1 type  1   force =     0.00000000    0.00000000  259.52700747
     atom    2 type  1   force =     0.00000000    0.00038284  259.52696768
     atom    3 type  1   force =     0.00038284    0.00000000  259.52696768
     atom    4 type  1   force =     0.00038284    0.00038284  259.52692091
     atom    5 type  1   force =    -0.00004490   -0.00004490  136.91701592
     atom    6 type  1   force =    -0.00004490    0.00004490  136.91701592
     atom    7 type  1   force =     0.00004490   -0.00004490  136.91701592
     atom    8 type  1   force =     0.00004490    0.00004490  136.91701592
     atom    9 type  1   force =     0.00000000    0.00000000    0.28273735
     atom   10 type  1   force =     0.00000000    0.00036940    0.28291552
     atom   11 type  1   force =     0.00036940    0.00000000    0.28291552
     atom   12 type  1   force =     0.00036940    0.00036940    0.28286307
     atom   13 type  1   force =    -0.00001225   -0.00001225 -137.18947555
     atom   14 type  1   force =    -0.00001225    0.00001225 -137.18947555
     atom   15 type  1   force =     0.00001225   -0.00001225 -137.18947555
     atom   16 type  1   force =     0.00001225    0.00001225 -137.18947555
     atom   17 type  1   force =     0.00000000    0.00000000 -259.53140060
     atom   18 type  1   force =     0.00000000    0.00038235 -259.53133882
     atom   19 type  1   force =     0.00038235    0.00000000 -259.53133882
     atom   20 type  1   force =     0.00038235    0.00038235 -259.53237208
     The core correction contribution to forces
     atom    1 type  1   force =    -0.00000000   -0.00000000   -0.01275977
     atom    2 type  1   force =    -0.00000000   -0.00001357   -0.01275992
     atom    3 type  1   force =    -0.00001357   -0.00000000   -0.01275992
     atom    4 type  1   force =    -0.00001357   -0.00001357   -0.01275983
     atom    5 type  1   force =     0.00000002    0.00000002   -0.00034157
     atom    6 type  1   force =     0.00000002   -0.00000001   -0.00034157
     atom    7 type  1   force =    -0.00000001    0.00000002   -0.00034157
     atom    8 type  1   force =    -0.00000001   -0.00000001   -0.00034157
     atom    9 type  1   force =    -0.00000000   -0.00000000    0.00020215
     atom   10 type  1   force =    -0.00000000   -0.00001350    0.00020198
     atom   11 type  1   force =    -0.00001350   -0.00000000    0.00020198
     atom   12 type  1   force =    -0.00001350   -0.00001350    0.00020201
     atom   13 type  1   force =    -0.00000001   -0.00000001   -0.00013292
     atom   14 type  1   force =    -0.00000001    0.00000002   -0.00013292
     atom   15 type  1   force =     0.00000002   -0.00000001   -0.00013292
     atom   16 type  1   force =     0.00000002    0.00000002   -0.00013293
     atom   17 type  1   force =     0.00000000    0.00000000    0.01302390
     atom   18 type  1   force =     0.00000000   -0.00001357    0.01302382
     atom   19 type  1   force =    -0.00001357    0.00000000    0.01302382
     atom   20 type  1   force =    -0.00001357   -0.00001357    0.01302369
     The Hubbard contrib.    to forces
     atom    1 type  1   force =     0.00000000    0.00000000   -0.00000000
     atom    2 type  1   force =     0.00000000    0.00000000   -0.00000000
     atom    3 type  1   force =     0.00000000    0.00000000   -0.00000000
     atom    4 type  1   force =     0.00000000    0.00000000   -0.00000000
     atom    5 type  1   force =     0.00000000    0.00000000   -0.00000000
     atom    6 type  1   force =     0.00000000   -0.00000000   -0.00000000
     atom    7 type  1   force =    -0.00000000    0.00000000   -0.00000000
     atom    8 type  1   force =    -0.00000000   -0.00000000   -0.00000000
     atom    9 type  1   force =     0.00000000    0.00000000   -0.00000000
     atom   10 type  1   force =     0.00000000    0.00000000   -0.00000000
     atom   11 type  1   force =     0.00000000    0.00000000   -0.00000000
     atom   12 type  1   force =     0.00000000    0.00000000   -0.00000000
     atom   13 type  1   force =    -0.00000000   -0.00000000    0.00000000
     atom   14 type  1   force =    -0.00000000    0.00000000    0.00000000
     atom   15 type  1   force =     0.00000000   -0.00000000    0.00000000
     atom   16 type  1   force =     0.00000000    0.00000000    0.00000000
     atom   17 type  1   force =     0.00000000    0.00000000    0.00000000
     atom   18 type  1   force =     0.00000000    0.00000000    0.00000000
     atom   19 type  1   force =     0.00000000    0.00000000    0.00000000
     atom   20 type  1   force =     0.00000000    0.00000000    0.00000000
     The SCF correction term to forces
     atom    1 type  1   force =     0.00000000    0.00000000    0.00000000
     atom    2 type  1   force =     0.00000000    0.00000000    0.00000000
     atom    3 type  1   force =     0.00000000    0.00000000    0.00000000
     atom    4 type  1   force =     0.00000000    0.00000000    0.00000000
     atom    5 type  1   force =     0.00000000    0.00000000    0.00000000
     atom    6 type  1   force =     0.00000000    0.00000000    0.00000000
     atom    7 type  1   force =     0.00000000    0.00000000    0.00000000
     atom    8 type  1   force =     0.00000000    0.00000000    0.00000000
     atom    9 type  1   force =     0.00000000    0.00000000    0.00000000
     atom   10 type  1   force =     0.00000000    0.00000000    0.00000000
     atom   11 type  1   force =     0.00000000    0.00000000    0.00000000
     atom   12 type  1   force =     0.00000000    0.00000000    0.00000000
     atom   13 type  1   force =     0.00001469    0.00001469    0.00000552
     atom   14 type  1   force =     0.00001469   -0.00001470    0.00000545
     atom   15 type  1   force =    -0.00001470    0.00001469    0.00000545
     atom   16 type  1   force =    -0.00001470   -0.00001470    0.00000539
     atom   17 type  1   force =    -0.00000097   -0.00000097   -0.00000734
     atom   18 type  1   force =    -0.00000097    0.00000098   -0.00002436
     atom   19 type  1   force =     0.00000098   -0.00000097   -0.00002436
     atom   20 type  1   force =     0.00000098    0.00000098   -0.00002524

     Total force =     0.000084     Total SCF correction =     0.000061
     SCF correction compared to forces is large: reduce conv_thr to get better values

     entering subroutine stress ...

     negative rho (up, down):  0.520E-04 0.137E-02
          total   stress  (Ry/bohr**3)                   (kbar)     P=  -14.38
  -0.00014629   0.00000000   0.00000000        -21.52      0.00      0.00
   0.00000000  -0.00014629   0.00000000          0.00    -21.52      0.00
   0.00000000   0.00000000  -0.00000077          0.00      0.00     -0.11

     kinetic stress (kbar)  31760.05     -0.00      0.00
                               -0.00  31760.05      0.00
                                0.00      0.00  31645.35

     local   stress (kbar)-864851.16     -0.00     -0.00
                               -0.00-864851.16     -0.00
                               -0.00     -0.00 915805.14

     nonloc. stress (kbar) -24782.63      0.00      0.00
                                0.00 -24782.63      0.00
                                0.00      0.00 -24699.89

     hartree stress (kbar) 457466.03      0.00      0.00
                                0.00 457466.03      0.00
                                0.00      0.00-422603.86

     exc-cor stress (kbar)  -1022.06     -0.00     -0.00
                               -0.00  -1022.06     -0.00
                               -0.00     -0.00  -1028.78

     corecor stress (kbar)  -6582.41      0.00      0.00
                                0.00  -6582.41      0.00
                                0.00      0.00  -6580.95

     ewald   stress (kbar) 407990.65      0.00      0.00
                                0.00 407990.65      0.00
                                0.00      0.00-492537.13

     hubbard stress (kbar)     -0.00      0.00      0.00
                                0.00     -0.00      0.00
                                0.00      0.00     -0.00

     london  stress (kbar)      0.00      0.00      0.00
                                0.00      0.00      0.00
                                0.00      0.00      0.00

     dft-nl  stress (kbar)      0.00      0.00      0.00
                                0.00      0.00      0.00
                                0.00      0.00      0.00

     BFGS Geometry Optimization

     bfgs converged in   1 scf cycles and   0 bfgs steps
     (criteria: energy < 0.10E-04, force < 0.10E-03)

     End of BFGS Geometry Optimization

     Final energy   =   -6584.6666815260 Ry
Begin final coordinates

ATOMIC_POSITIONS (angstrom)
Fe       0.000000000   0.000000000  -2.832506000    0   0   0
Fe       0.000000000   2.832506000  -2.832506000    0   0   0
Fe       2.832506000   0.000000000  -2.832506000    0   0   0
Fe       2.832506000   2.832506000  -2.832506000    0   0   0
Fe       1.416253000   1.416253000  -1.416253000    0   0   0
Fe       1.416253000  -1.416253000  -1.416253000    0   0   0
Fe      -1.416253000   1.416253000  -1.416253000    0   0   0
Fe      -1.416253000  -1.416253000  -1.416253000    0   0   0
Fe       0.000000000   0.000000000   0.000000000    0   0   0
Fe       0.000000000   2.832506000   0.000000000    0   0   0
Fe       2.832506000   0.000000000   0.000000000    0   0   0
Fe       2.832506000   2.832506000   0.000000000    0   0   0
Fe       1.416256023   1.416256023   1.432898813
Fe       1.416256023  -1.416256023   1.432898813
Fe      -1.416256023   1.416256023   1.432898813
Fe      -1.416256023  -1.416256023   1.432898813
Fe       0.000000000   0.000000000   2.828874784
Fe       0.000000000   2.832506000   2.828872452
Fe       2.832506000   0.000000000   2.828872452
Fe       2.832506000   2.832506000   2.828899099
End final coordinates

     Writing output data file Fe_100.save

     General routines

     Parallel routines
     Hubbard U routines

     PAW routines

   This run was terminated on:   4:19:30   5Aug2015

   JOB DONE.
Application 16683442 resources: utime ~87301s, stime ~2310s, Rss ~617400, inblocks ~3155407888, outblocks ~496899232