     Program PWSCF v.5.0.2 (svn rev. 9656) starts on 12Dec2015 at  4:49:14

     Current dimensions of program PWSCF are:
     Max number of different atomic species (ntypx) = 10
     Max number of k-points (npk) =  40000
     Max angular momentum in pseudopotentials (lmaxx) =  3
     Reading input from Fe_110_2x2_SB_O_LB_CO_25ML_scf.in
Warning: card  &IONS ignored
Warning: card  / ignored
Warning: card  &CELL ignored
Warning: card    PRESS=0.0 ignored
Warning: card    PRESS_CONV_THR=0.1 ignored
Warning: card  / ignored

     IMPORTANT: XC functional enforced from input :
     Exchange-correlation      = PBE ( 1 4 3 4 0)
     EXX-fraction              =        0.00
     Any further DFT definition will be discarded
     Please, verify this is what you really want

               file Fe.pbe-spn-kjpaw_psl.0.2.1.UPF: wavefunction(s)  3D renormalized
               file C.pbe-n-kjpaw_psl.0.1.upf: wavefunction(s)  2P renormalized
               file O.pbe-n-kjpaw_psl.0.1.UPF: wavefunction(s)  2P renormalized

   Task Groups are in USE
   groups and procs/group :     2    6

     bravais-lattice index     =            0
     lattice parameter (alat)  =       1.8897  a.u.
     unit-cell volume          =    3139.3349 (a.u.)^3
     number of atoms/cell      =           23
     number of atomic types    =            3
     number of electrons       =       336.00
     number of Kohn-Sham states=          202
     kinetic-energy cutoff     =      95.0000  Ry
     charge density cutoff     =     800.0000  Ry
     convergence threshold     =      1.0E-08
     mixing beta               =       0.5000
     number of iterations used =            8  local-TF  mixing
     Exchange-correlation      = PBE ( 1 4 3 4 0)
     EXX-fraction              =        0.00

     celldm(1)=   1.889727  celldm(2)=   0.000000  celldm(3)=   0.000000
     celldm(4)=   0.000000  celldm(5)=   0.000000  celldm(6)=   0.000000

     crystal axes: (cart. coord. in units of alat)
               a(1) = (   4.906044   0.000000   0.000000 )
               a(2) = (  -1.635348   4.625463   0.000000 )
               a(3) = (   0.000000   0.000000  20.500000 )

     reciprocal axes: (cart. coord. in units 2 pi/alat)
               b(1) = (  0.203830  0.072065  0.000000 )
               b(2) = (  0.000000  0.216195  0.000000 )
               b(3) = (  0.000000  0.000000  0.048780 )

     PseudoPot. # 1 for Fe read from file:
     /work/e05/e05/ablar/QE_PSEUDO/Fe.pbe-spn-kjpaw_psl.0.2.1.UPF
     MD5 check sum: a0a08122d52b112de96d1da1d7dd020f
     Pseudo is Projector augmented-wave + core cor, Zval = 16.0
     Generated using "atomic" code by A. Dal Corso  v.5.0.2 svn rev. 9415
     Shape of augmentation charge: PSQ
     Using radial grid of 1191 points,  6 beta functions with:
                l(1) =   0
                l(2) =   0
                l(3) =   1
                l(4) =   1
                l(5) =   2
                l(6) =   2
     Q(r) pseudized with 0 coefficients

     PseudoPot. # 2 for  C read from file:
     /work/e05/e05/ablar/QE_PSEUDO/C.pbe-n-kjpaw_psl.0.1.upf
     MD5 check sum: 430fe95172b1e11ef3f8ed03bac87931
     Pseudo is Projector augmented-wave + core cor, Zval =  4.0
     Generated using "atomic" code by A. Dal Corso  v.5.0.99 svn rev. 10869
     Shape of augmentation charge: BESSEL
     Using radial grid of 1073 points,  4 beta functions with:
                l(1) =   0
                l(2) =   0
                l(3) =   1
                l(4) =   1
     Q(r) pseudized with 0 coefficients

     PseudoPot. # 3 for  O read from file:
     /work/e05/e05/ablar/QE_PSEUDO/O.pbe-n-kjpaw_psl.0.1.UPF
     MD5 check sum: 1d826bf4880e2aee2c3af49d0719521d
     Pseudo is Projector augmented-wave + core cor, Zval =  6.0
     Generated using "atomic" code by A. Dal Corso  v.5.0.2 svn rev. 9415
     Shape of augmentation charge: BESSEL
     Using radial grid of 1095 points,  4 beta functions with:
                l(1) =   0
                l(2) =   0
                l(3) =   1
                l(4) =   1
     Q(r) pseudized with 0 coefficients

     atomic species   valence    mass     pseudopotential
        Fe            16.00    55.85000     Fe( 1.00)
        C              4.00    12.00000      C( 1.00)
        O              6.00    16.00000      O( 1.00)

     Starting magnetic structure
     atomic species   magnetization
        Fe           0.600
        C            0.000
        O            0.000

     Simplified LDA+U calculation (l_max = 2) with parameters (eV):
     atomic species    L          U    alpha       J0     beta
        Fe             2     0.0000   0.0000   0.0000   0.0000

     No symmetry found

                                    s                        frac. trans.

      isym =  1     identity

 cryst.   s( 1) = (     1          0          0      )
                  (     0          1          0      )
                  (     0          0          1      )

 cart.    s( 1) = (  1.0000000  0.0000000  0.0000000 )
                  (  0.0000000  1.0000000  0.0000000 )
                  (  0.0000000  0.0000000  1.0000000 )

     point group C_1 (1)
     there are  1 classes
     the character table:

       E
A      1.00

     the symmetry operations in each class:
     E        1

   Cartesian axes

     site n.     atom                  positions (alat units)
         1           Fe  tau(   1) = (   0.0000000   0.0000000  -4.0057584  )
         2           Fe  tau(   2) = (  -0.8176697   2.3127291  -4.0057584  )
         3           Fe  tau(   3) = (   2.4530190   0.0000000  -4.0057584  )
         4           Fe  tau(   4) = (  -3.2706887   2.3127291  -4.0057584  )
         5           Fe  tau(   5) = (   0.8176697   1.1563595  -2.0028892  )
         6           Fe  tau(   6) = (  -0.8176697  -1.1563595  -2.0028892  )
         7           Fe  tau(   7) = (   1.6353494  -1.1563595  -2.0028892  )
         8           Fe  tau(   8) = (  -1.6353494   1.1563595  -2.0028892  )
         9           Fe  tau(   9) = (   0.0000000   0.0000000   0.0000000  )
        10           Fe  tau(  10) = (  -0.8176697   2.3127291   0.0000000  )
        11           Fe  tau(  11) = (   2.4530190   0.0000000   0.0000000  )
        12           Fe  tau(  12) = (  -3.2706887   2.3127291   0.0000000  )
        13           Fe  tau(  13) = (   0.8283827   1.1694849   1.9793317  )
        14           Fe  tau(  14) = (  -0.8178250  -1.1621254   1.9639967  )
        15           Fe  tau(  15) = (   1.6449356  -1.1418947   2.0070874  )
        16           Fe  tau(  16) = (  -1.6306659   1.1606257   1.9996973  )
        17           Fe  tau(  17) = (  -0.0006606  -0.0334763   3.9034086  )
        18           Fe  tau(  18) = (  -0.8075391   2.2979688   4.0409380  )
        19           Fe  tau(  19) = (   2.5135074   0.0760972   4.1246713  )
        20           Fe  tau(  20) = (  -3.2264139   2.4265124   3.9535496  )
        21           O   tau(  21) = (   1.8611474   0.2981931   6.0107602  )
        22           C   tau(  22) = (   0.8783797   0.8266121   5.3796659  )
        23           O   tau(  23) = (   0.4631725   2.0752645   5.6080450  )

   Crystallographic axes

     site n.     atom                  positions (cryst. coord.)
         1           Fe  tau(   1) = (  0.0000000  0.0000000 -0.1954028  )
         2           Fe  tau(   2) = (  0.0000007  0.4999995 -0.1954028  )
         3           Fe  tau(   3) = (  0.4999994  0.0000000 -0.1954028  )
         4           Fe  tau(   4) = ( -0.4999986  0.4999995 -0.1954028  )
         5           Fe  tau(   5) = (  0.2499987  0.2499987 -0.0977019  )
         6           Fe  tau(   6) = ( -0.2499987 -0.2499987 -0.0977019  )
         7           Fe  tau(   7) = (  0.2500007 -0.2499987 -0.0977019  )
         8           Fe  tau(   8) = ( -0.2500007  0.2499987 -0.0977019  )
         9           Fe  tau(   9) = (  0.0000000  0.0000000  0.0000000  )
        10           Fe  tau(  10) = (  0.0000007  0.4999995  0.0000000  )
        11           Fe  tau(  11) = (  0.4999994  0.0000000  0.0000000  )
        12           Fe  tau(  12) = ( -0.4999986  0.4999995  0.0000000  )
        13           Fe  tau(  13) = (  0.2531282  0.2528363  0.0965528  )
        14           Fe  tau(  14) = ( -0.2504458 -0.2512452  0.0958047  )
        15           Fe  tau(  15) = (  0.2529971 -0.2468715  0.0979067  )
        16           Fe  tau(  16) = ( -0.2487386  0.2509210  0.0975462  )
        17           Fe  tau(  17) = ( -0.0025471 -0.0072374  0.1904102  )
        18           Fe  tau(  18) = (  0.0010019  0.4968084  0.1971189  )
        19           Fe  tau(  19) = (  0.5178126  0.0164518  0.2012035  )
        20           Fe  tau(  20) = ( -0.4827743  0.5245988  0.1928561  )
        21           O   tau(  21) = (  0.4008473  0.0644677  0.2932078  )
        22           C   tau(  22) = (  0.2386100  0.1787091  0.2624227  )
        23           O   tau(  23) = (  0.2439622  0.4486609  0.2735632  )

     number of k points=    20  Marzari-Vanderbilt smearing, width (Ry)=  0.0400
                       cart. coord. in units 2pi/alat
        k(    1) = (   0.0000000   0.0000000   0.0000000), wk =   0.0625000
        k(    2) = (   0.0000000   0.0540486   0.0000000), wk =   0.1250000
        k(    3) = (   0.0000000  -0.1080973   0.0000000), wk =   0.0625000
        k(    4) = (   0.0509576   0.0180162   0.0000000), wk =   0.1250000
        k(    5) = (   0.0509576   0.0720649   0.0000000), wk =   0.1250000
        k(    6) = (   0.0509576  -0.0900811   0.0000000), wk =   0.1250000
        k(    7) = (   0.0509576  -0.0360324   0.0000000), wk =   0.1250000
        k(    8) = (  -0.1019151  -0.0360324   0.0000000), wk =   0.0625000
        k(    9) = (  -0.1019151   0.0180162   0.0000000), wk =   0.1250000
        k(   10) = (  -0.1019151  -0.1441297   0.0000000), wk =   0.0625000
        k(   11) = (   0.0000000   0.0000000   0.0000000), wk =   0.0625000
        k(   12) = (   0.0000000   0.0540486   0.0000000), wk =   0.1250000
        k(   13) = (   0.0000000  -0.1080973   0.0000000), wk =   0.0625000
        k(   14) = (   0.0509576   0.0180162   0.0000000), wk =   0.1250000
        k(   15) = (   0.0509576   0.0720649   0.0000000), wk =   0.1250000
        k(   16) = (   0.0509576  -0.0900811   0.0000000), wk =   0.1250000
        k(   17) = (   0.0509576  -0.0360324   0.0000000), wk =   0.1250000
        k(   18) = (  -0.1019151  -0.0360324   0.0000000), wk =   0.0625000
        k(   19) = (  -0.1019151   0.0180162   0.0000000), wk =   0.1250000
        k(   20) = (  -0.1019151  -0.1441297   0.0000000), wk =   0.0625000

                       cryst. coord.
        k(    1) = (   0.0000000   0.0000000   0.0000000), wk =   0.0625000
        k(    2) = (   0.0000000   0.2500000   0.0000000), wk =   0.1250000
        k(    3) = (   0.0000000  -0.5000000   0.0000000), wk =   0.0625000
        k(    4) = (   0.2500000   0.0000000   0.0000000), wk =   0.1250000
        k(    5) = (   0.2500000   0.2500000   0.0000000), wk =   0.1250000
        k(    6) = (   0.2500000  -0.5000000   0.0000000), wk =   0.1250000
        k(    7) = (   0.2500000  -0.2500000   0.0000000), wk =   0.1250000
[...]
     1.0283   1.0316   1.0361   1.0407   1.0518   1.0669   1.0693   1.0778
     1.0833   1.0792   1.0787   1.0759   1.0725   1.0287   1.0235   0.9379
     0.8953   0.8373   0.8046   0.7542   0.7090   0.5548   0.5353   0.5311
     0.4602   0.4507   0.3915   0.3644   0.3613   0.2954   0.2296   0.1320
     0.0506   0.0487   0.0446   0.0213   0.0158   0.0128   0.0095   0.0090
     0.0081   0.0073   0.0064   0.0018   0.0016   0.0009   0.0006   0.0005
     0.0004   0.0001   0.0001   0.0001   0.0000   0.0000   0.0000   0.0000
     0.0000   0.0000   0.0000   0.0000   0.0000   0.0000   0.0000   0.0000
     0.0000   0.0000   0.0000   0.0000   0.0000   0.0000   0.0000   0.0000
     0.0000   0.0000   0.0000   0.0000   0.0000   0.0000   0.0000   0.0000
     0.0000   0.0000

     the Fermi energy is     6.9199 ev

!    total energy              =   -6686.67181230 Ry
     Harris-Foulkes estimate   =   -6686.67181230 Ry
     estimated scf accuracy    <          5.3E-09 Ry

     total all-electron energy =    -51288.060408 Ry

     The total energy is the sum of the following terms:

     one-electron contribution =  -29182.53130374 Ry
     hartree contribution      =   14679.22942082 Ry
     xc contribution           =    -715.28143282 Ry
     ewald contribution        =   10080.50945474 Ry
     Hubbard energy            =       0.00000000 Ry
     one-center paw contrib.   =   -1548.72587131 Ry
     smearing contrib. (-TS)   =       0.12792001 Ry

     total magnetization       =    45.98 Bohr mag/cell
     absolute magnetization    =    48.27 Bohr mag/cell

     convergence has been achieved in  29 iterations

     Forces acting on atoms (Ry/au):

     negative rho (up, down):  0.615E-04 0.510E-03
     atom    1 type  1   force =     0.00003821    0.00019011    0.00245462
     atom    2 type  1   force =     0.00004133    0.00010116    0.00215621
     atom    3 type  1   force =     0.00005302    0.00003714    0.00229387
     atom    4 type  1   force =     0.00009688    0.00003505    0.00215287
     atom    5 type  1   force =     0.00017928    0.00037404   -0.00019212
     atom    6 type  1   force =     0.00019344    0.00031696    0.00117026
     atom    7 type  1   force =    -0.00025832   -0.00026231    0.00099392
     atom    8 type  1   force =    -0.00033252   -0.00047466    0.00250757
     atom    9 type  1   force =     0.00070407    0.00088826   -0.00451697
     atom   10 type  1   force =     0.00009805    0.00074186   -0.00093069
     atom   11 type  1   force =     0.00111312    0.00046511   -0.00077025
     atom   12 type  1   force =    -0.00175669   -0.00202225   -0.00752613
     atom   13 type  1   force =     0.00005133   -0.00001727    0.00001662
     atom   14 type  1   force =    -0.00005119   -0.00000738    0.00003233
     atom   15 type  1   force =    -0.00000684   -0.00003659   -0.00000914
     atom   16 type  1   force =    -0.00004557   -0.00002298    0.00002785
     atom   17 type  1   force =    -0.00002271    0.00003910    0.00009490
     atom   18 type  1   force =     0.00004456   -0.00002317    0.00008194
     atom   19 type  1   force =    -0.00000282   -0.00008832   -0.00008881
     atom   20 type  1   force =    -0.00000379   -0.00004988   -0.00002236
     atom   21 type  3   force =    -0.00001489   -0.00008154   -0.00000474
     atom   22 type  2   force =    -0.00004838   -0.00007282    0.00005175
     atom   23 type  3   force =    -0.00006958   -0.00002963    0.00002651
     The non-local contrib.  to forces
     atom    1 type  1   force =     0.00034613   -0.00036441   -0.20047190
     atom    2 type  1   force =    -0.00006265    0.00036498   -0.20118522
     atom    3 type  1   force =    -0.00057719   -0.00011564   -0.20167789
     atom    4 type  1   force =     0.00015454   -0.00009945   -0.20014387
     atom    5 type  1   force =    -0.00056449   -0.00036172   -0.02899544
     atom    6 type  1   force =    -0.00065289   -0.00063069   -0.02801049
     atom    7 type  1   force =     0.00026992   -0.00004449   -0.03051470
     atom    8 type  1   force =    -0.00005931   -0.00024582   -0.03128219
     atom    9 type  1   force =     0.00064064   -0.00261411    0.00661127
     atom   10 type  1   force =     0.00208010   -0.00259271   -0.00353992
     atom   11 type  1   force =    -0.00427684   -0.00064979   -0.00339030
     atom   12 type  1   force =    -0.00095140    0.00144030    0.01288682
     atom   13 type  1   force =     0.00164183    0.00128032    0.04380913
     atom   14 type  1   force =     0.00871929    0.01692154    0.04212861
     atom   15 type  1   force =     0.00417257   -0.00722295    0.01005649
     atom   16 type  1   force =    -0.00017743    0.00621386    0.01053608
     atom   17 type  1   force =     0.07778028    0.07951066    0.06529360
     atom   18 type  1   force =     0.08774484    0.00143503    0.21121619
     atom   19 type  1   force =    -0.12097347    0.01986460    0.19333142
     atom   20 type  1   force =    -0.14870169   -0.16193378    0.27503767
     atom   21 type  3   force =    -1.46271999    0.82350649   -1.59205902
     atom   22 type  2   force =     0.26937482    0.38996591    0.29649771
     atom   23 type  3   force =     0.47671364   -1.66244831   -1.19101808
     The ionic contribution  to forces
     atom    1 type  1   force =     0.00073332    0.00053121 -325.11226356
     atom    2 type  1   force =     0.00094186    0.00006495 -325.11102455
     atom    3 type  1   force =    -0.00067562   -0.00017812 -325.11162488
     atom    4 type  1   force =    -0.00100621   -0.00041611 -325.11349606
     atom    5 type  1   force =    -0.00758692   -0.00645031 -172.55104643
     atom    6 type  1   force =     0.00670267    0.00731841 -172.58978940
     atom    7 type  1   force =    -0.00688079    0.00086874 -172.52172136
     atom    8 type  1   force =     0.00727514   -0.00231333 -172.53941288
     atom    9 type  1   force =     0.19240269    0.18349961  -17.84981664
     atom   10 type  1   force =     0.22395539    0.05803138  -17.43405922
     atom   11 type  1   force =    -0.12701554    0.03427177  -17.53358018
     atom   12 type  1   force =    -0.18915855   -0.14036113  -18.25360631
     atom   13 type  1   force =     0.31807030   -0.07259093  137.40298251
     atom   14 type  1   force =     0.11553023    0.36056080  134.89913984
     atom   15 type  1   force =     0.07303684    0.52672921  140.47581310
     atom   16 type  1   force =    -0.26498970   -0.46634918  139.09985347
     atom   17 type  1   force =    -1.79399808   -3.77987747  286.07497963
     atom   18 type  1   force =    -4.45066111    2.27398931  294.28414769
     atom   19 type  1   force =     3.23903779   -1.85412854  294.26870521
     atom   20 type  1   force =     3.79380157    2.43916892  287.42882458
     atom   21 type  3   force =     5.24689345   -3.54136478  130.01273617
     atom   22 type  2   force =    -3.62571683   -2.13697849   84.82245962
     atom   23 type  3   force =    -2.75069190    6.11597408  132.95179962
     The local contribution  to forces
     atom    1 type  1   force =    -0.00099237    0.00005718  325.32388714
     atom    2 type  1   force =    -0.00089158   -0.00030853  325.32314662
     atom    3 type  1   force =     0.00131782    0.00029538  325.32435074
     atom    4 type  1   force =     0.00095226    0.00056282  325.32444357
     atom    5 type  1   force =     0.00828633    0.00709096  172.58111730
     atom    6 type  1   force =    -0.00590439   -0.00640133  172.62050081
     atom    7 type  1   force =     0.00635845   -0.00110424  172.55473602
     atom    8 type  1   force =    -0.00756401    0.00207476  172.57481518
     atom    9 type  1   force =    -0.19265135   -0.18033737   17.83907523
     atom   10 type  1   force =    -0.22606681   -0.05472487   17.43664044
     atom   11 type  1   force =     0.13249635   -0.03313645   17.53612686
     atom   12 type  1   force =     0.18828949    0.13670507   18.23346841
     atom   13 type  1   force =    -0.31980138    0.07103210 -137.45013911
     atom   14 type  1   force =    -0.12480842   -0.37770225 -134.94106839
     atom   15 type  1   force =    -0.07747954   -0.51969699 -140.48840731
     atom   16 type  1   force =     0.26523870    0.46024020 -139.11154533
     atom   17 type  1   force =     1.71792272    3.70495126 -286.13593673
     atom   18 type  1   force =     4.35471707   -2.27460502 -294.51069423
     atom   19 type  1   force =    -3.11196816    1.83407511 -294.47694203
     atom   20 type  1   force =    -3.63868046   -2.27338890 -287.71669445
     atom   21 type  3   force =    -3.79707129    2.72496498 -128.43544775
     atom   22 type  2   force =     3.35881613    1.75551899  -85.11429526
     atom   23 type  3   force =     2.27811164   -4.46894305 -131.77277281
     The core correction contribution to forces
     atom    1 type  1   force =    -0.00004875   -0.00003137   -0.00877319
     atom    2 type  1   force =     0.00005435   -0.00002330   -0.00883418
     atom    3 type  1   force =    -0.00001006    0.00003857   -0.00880805
     atom    4 type  1   force =    -0.00000279   -0.00001311   -0.00872677
     atom    5 type  1   force =     0.00004480    0.00009755   -0.00144402
     atom    6 type  1   force =     0.00004993    0.00002828   -0.00170468
     atom    7 type  1   force =    -0.00000689    0.00001484   -0.00166802
     atom    8 type  1   force =     0.00001754    0.00001345   -0.00177371
     atom    9 type  1   force =     0.00032210    0.00035388   -0.00044313
     atom   10 type  1   force =     0.00014076    0.00002375   -0.00006560
     atom   11 type  1   force =    -0.00009733   -0.00001465   -0.00002059
     atom   12 type  1   force =     0.00005222    0.00018039   -0.00033164
     atom   13 type  1   force =     0.00013564    0.00026531    0.00335751
     atom   14 type  1   force =     0.00051511    0.00021003   -0.00015628
     atom   15 type  1   force =     0.00025522    0.00014604    0.00253009
     atom   16 type  1   force =    -0.00010948   -0.00011740    0.00118458
     atom   17 type  1   force =    -0.00173753   -0.00454038   -0.00422986
     atom   18 type  1   force =     0.00823043   -0.00084841    0.01541744
     atom   19 type  1   force =    -0.00607373    0.00009962    0.01482585
     atom   20 type  1   force =    -0.00640301   -0.00387613    0.01280063
     atom   21 type  3   force =     0.01288728   -0.00719533    0.01480025
     atom   22 type  2   force =    -0.00253118   -0.00858506   -0.00461141
     atom   23 type  3   force =    -0.00421257    0.01539273    0.01204097
     The Hubbard contrib.    to forces
     atom    1 type  1   force =     0.00000000    0.00000000   -0.00000000
     atom    2 type  1   force =    -0.00000000    0.00000000   -0.00000000
     atom    3 type  1   force =     0.00000000   -0.00000000   -0.00000000
     atom    4 type  1   force =    -0.00000000    0.00000000   -0.00000000
     atom    5 type  1   force =    -0.00000000   -0.00000000    0.00000000
     atom    6 type  1   force =     0.00000000    0.00000000    0.00000000
     atom    7 type  1   force =    -0.00000000    0.00000000    0.00000000
     atom    8 type  1   force =    -0.00000000   -0.00000000    0.00000000
     atom    9 type  1   force =    -0.00000000   -0.00000000    0.00000000
     atom   10 type  1   force =    -0.00000000   -0.00000000   -0.00000000
     atom   11 type  1   force =     0.00000000    0.00000000   -0.00000000
     atom   12 type  1   force =    -0.00000000   -0.00000000    0.00000000
     atom   13 type  1   force =    -0.00000000   -0.00000000   -0.00000000
     atom   14 type  1   force =     0.00000000    0.00000000    0.00000000
     atom   15 type  1   force =     0.00000000   -0.00000000   -0.00000000
     atom   16 type  1   force =     0.00000000   -0.00000000    0.00000000
     atom   17 type  1   force =     0.00000000    0.00000000    0.00000000
     atom   18 type  1   force =    -0.00000000    0.00000000    0.00000000
     atom   19 type  1   force =     0.00000000   -0.00000000    0.00000000
     atom   20 type  1   force =     0.00000000   -0.00000000   -0.00000000
     atom   21 type  3   force =    -0.00000000    0.00000000    0.00000000
     atom   22 type  2   force =     0.00000000    0.00000000    0.00000000
     atom   23 type  3   force =     0.00000000   -0.00000000    0.00000000
     The SCF correction term to forces
     atom    1 type  1   force =     0.00000000    0.00000000    0.00000000
     atom    2 type  1   force =     0.00000000    0.00000000    0.00000000
     atom    3 type  1   force =     0.00000000    0.00000000    0.00000000
     atom    4 type  1   force =     0.00000000    0.00000000    0.00000000
     atom    5 type  1   force =     0.00000000    0.00000000    0.00000000
     atom    6 type  1   force =     0.00000000    0.00000000    0.00000000
     atom    7 type  1   force =     0.00000000    0.00000000    0.00000000
     atom    8 type  1   force =     0.00000000    0.00000000    0.00000000
     atom    9 type  1   force =     0.00000000    0.00000000    0.00000000
     atom   10 type  1   force =     0.00000000    0.00000000    0.00000000
     atom   11 type  1   force =     0.00000000    0.00000000    0.00000000
     atom   12 type  1   force =     0.00000000    0.00000000    0.00000000
     atom   13 type  1   force =     0.00000576   -0.00000363   -0.00000844
     atom   14 type  1   force =    -0.00000658    0.00000293   -0.00002647
     atom   15 type  1   force =     0.00000889    0.00000853   -0.00001654
     atom   16 type  1   force =    -0.00000683   -0.00001003   -0.00001597
     atom   17 type  1   force =     0.00001073   -0.00000453   -0.00002676
     atom   18 type  1   force =     0.00001415    0.00000634   -0.00002019
     atom   19 type  1   force =    -0.00002443    0.00000131   -0.00002430
     atom   20 type  1   force =    -0.00001937   -0.00001956   -0.00000581
     atom   21 type  3   force =    -0.00000351    0.00000753   -0.00004943
     atom   22 type  2   force =     0.00000950    0.00000627   -0.00001395
     atom   23 type  3   force =     0.00001043   -0.00000465   -0.00003822

     Total force =     0.000273     Total SCF correction =     0.000098
     SCF correction compared to forces is large: reduce conv_thr to get better values

     entering subroutine stress ...

     negative rho (up, down):  0.615E-04 0.510E-03
          total   stress  (Ry/bohr**3)                   (kbar)     P=   -5.14
  -0.00003907  -0.00002463  -0.00000056         -5.75     -3.62     -0.08
  -0.00002463  -0.00003752  -0.00000167         -3.62     -5.52     -0.25
  -0.00000056  -0.00000167  -0.00002814         -0.08     -0.25     -4.14

     kinetic stress (kbar)  41100.23     52.90      1.85
                               52.90  41093.79     30.70
                                1.85     30.70  40984.15

     local   stress (kbar)**********   1849.01      8.10
                             1849.01**********    170.90
                                8.10    170.901292933.27

     nonloc. stress (kbar) -30830.41      8.59     -5.80
                                8.59 -30813.94     -7.98
                               -5.80     -7.98 -30708.35

     hartree stress (kbar) 645421.03   -669.93    -45.10
                             -669.93 645265.68    -73.22
                              -45.10    -73.22-602837.57

     exc-cor stress (kbar)  -1470.69     -2.39      1.13
                               -2.39  -1470.78      0.18
                                1.13      0.18  -1479.30

     corecor stress (kbar)  -8244.05      0.18     -0.31
                                0.18  -8244.05     -0.11
                               -0.31     -0.11  -8242.06

     ewald   stress (kbar) 581680.75  -1241.98     40.05
                            -1241.98 581332.78   -120.72
                               40.05   -120.72-690654.28

     hubbard stress (kbar)     -0.00      0.00     -0.00
                                0.00     -0.00     -0.00
                               -0.00     -0.00     -0.00

     london  stress (kbar)      0.00      0.00      0.00
                                0.00      0.00      0.00
                                0.00      0.00      0.00

     dft-nl  stress (kbar)      0.00      0.00      0.00
                                0.00      0.00      0.00
                                0.00      0.00      0.00

     Writing output data file Fe_110_2x2_SB_O_LB_CO_25ML.save

     General routines

     Parallel routines
     Hubbard U routines

     PAW routines

   This run was terminated on:   5:29:46  12Dec2015

   JOB DONE.
Application 19354454 resources: utime ~112758s, stime ~3553s, Rss ~550636, inblocks ~5191525010, outblocks ~831300399