     Program PWSCF v.5.0.2 (svn rev. 9656) starts on  4Aug2015 at 11:48:38

     Current dimensions of program PWSCF are:
     Max number of different atomic species (ntypx) = 10
     Max number of k-points (npk) =  40000
     Max angular momentum in pseudopotentials (lmaxx) =  3
     Reading input from Fe_110_2x2_SB_CO_O_25ML_scf.in
Warning: card  &IONS ignored
Warning: card  / ignored
Warning: card  &CELL ignored
Warning: card    PRESS=0.0 ignored
Warning: card    PRESS_CONV_THR=0.1 ignored
Warning: card  / ignored

     IMPORTANT: XC functional enforced from input :
     Exchange-correlation      = PBE ( 1 4 3 4 0)
     EXX-fraction              =        0.00
     Any further DFT definition will be discarded
     Please, verify this is what you really want

               file Fe.pbe-spn-kjpaw_psl.0.2.1.UPF: wavefunction(s)  3D renormalized
               file C.pbe-n-kjpaw_psl.0.1.upf: wavefunction(s)  2P renormalized
               file O.pbe-n-kjpaw_psl.0.1.UPF: wavefunction(s)  2P renormalized

   Task Groups are in USE
   groups and procs/group :     2    6

     bravais-lattice index     =            0
     lattice parameter (alat)  =       1.8897  a.u.
     unit-cell volume          =    3139.3349 (a.u.)^3
     number of atoms/cell      =           23
     number of atomic types    =            3
     number of electrons       =       336.00
     number of Kohn-Sham states=          202
     kinetic-energy cutoff     =      95.0000  Ry
     charge density cutoff     =     800.0000  Ry
     convergence threshold     =      1.0E-08
     mixing beta               =       0.5000
     number of iterations used =            8  local-TF  mixing
     Exchange-correlation      = PBE ( 1 4 3 4 0)
     EXX-fraction              =        0.00

     celldm(1)=   1.889727  celldm(2)=   0.000000  celldm(3)=   0.000000
     celldm(4)=   0.000000  celldm(5)=   0.000000  celldm(6)=   0.000000

     crystal axes: (cart. coord. in units of alat)
               a(1) = (   4.906044   0.000000   0.000000 )
               a(2) = (  -1.635348   4.625463   0.000000 )
               a(3) = (   0.000000   0.000000  20.500000 )

     reciprocal axes: (cart. coord. in units 2 pi/alat)
               b(1) = (  0.203830  0.072065  0.000000 )
               b(2) = (  0.000000  0.216195  0.000000 )
               b(3) = (  0.000000  0.000000  0.048780 )

     PseudoPot. # 1 for Fe read from file:
     /work/e05/e05/ablar/QE_PSEUDO/Fe.pbe-spn-kjpaw_psl.0.2.1.UPF
     MD5 check sum: a0a08122d52b112de96d1da1d7dd020f
     Pseudo is Projector augmented-wave + core cor, Zval = 16.0
     Generated using "atomic" code by A. Dal Corso  v.5.0.2 svn rev. 9415
     Shape of augmentation charge: PSQ
     Using radial grid of 1191 points,  6 beta functions with:
                l(1) =   0
                l(2) =   0
                l(3) =   1
                l(4) =   1
                l(5) =   2
                l(6) =   2
     Q(r) pseudized with 0 coefficients

     PseudoPot. # 2 for  C read from file:
     /work/e05/e05/ablar/QE_PSEUDO/C.pbe-n-kjpaw_psl.0.1.upf
     MD5 check sum: 430fe95172b1e11ef3f8ed03bac87931
     Pseudo is Projector augmented-wave + core cor, Zval =  4.0
     Generated using "atomic" code by A. Dal Corso  v.5.0.99 svn rev. 10869
     Shape of augmentation charge: BESSEL
     Using radial grid of 1073 points,  4 beta functions with:
                l(1) =   0
                l(2) =   0
                l(3) =   1
                l(4) =   1
     Q(r) pseudized with 0 coefficients

     PseudoPot. # 3 for  O read from file:
     /work/e05/e05/ablar/QE_PSEUDO/O.pbe-n-kjpaw_psl.0.1.UPF
     MD5 check sum: 1d826bf4880e2aee2c3af49d0719521d
     Pseudo is Projector augmented-wave + core cor, Zval =  6.0
     Generated using "atomic" code by A. Dal Corso  v.5.0.2 svn rev. 9415
     Shape of augmentation charge: BESSEL
     Using radial grid of 1095 points,  4 beta functions with:
                l(1) =   0
                l(2) =   0
                l(3) =   1
                l(4) =   1
     Q(r) pseudized with 0 coefficients

     atomic species   valence    mass     pseudopotential
        Fe            16.00    55.85000     Fe( 1.00)
        C              4.00    12.00000      C( 1.00)
        O              6.00    16.00000      O( 1.00)

     Starting magnetic structure
     atomic species   magnetization
        Fe           0.600
        C            0.000
        O            0.000

     Simplified LDA+U calculation (l_max = 2) with parameters (eV):
     atomic species    L          U    alpha       J0     beta
        Fe             2     0.0000   0.0000   0.0000   0.0000

     No symmetry found

                                    s                        frac. trans.

      isym =  1     identity

 cryst.   s( 1) = (     1          0          0      )
                  (     0          1          0      )
                  (     0          0          1      )

 cart.    s( 1) = (  1.0000000  0.0000000  0.0000000 )
                  (  0.0000000  1.0000000  0.0000000 )
                  (  0.0000000  0.0000000  1.0000000 )

     point group C_1 (1)
     there are  1 classes
     the character table:

       E
A      1.00

     the symmetry operations in each class:
     E        1

   Cartesian axes

     site n.     atom                  positions (alat units)
         1           Fe  tau(   1) = (   0.0000000   0.0000000  -4.0057584  )
         2           Fe  tau(   2) = (  -0.8176697   2.3127291  -4.0057584  )
         3           Fe  tau(   3) = (   2.4530190   0.0000000  -4.0057584  )
         4           Fe  tau(   4) = (  -3.2706887   2.3127291  -4.0057584  )
         5           Fe  tau(   5) = (   0.8176697   1.1563595  -2.0028892  )
         6           Fe  tau(   6) = (  -0.8176697  -1.1563595  -2.0028892  )
         7           Fe  tau(   7) = (   1.6353494  -1.1563595  -2.0028892  )
         8           Fe  tau(   8) = (  -1.6353494   1.1563595  -2.0028892  )
         9           Fe  tau(   9) = (   0.0000000   0.0000000   0.0000000  )
        10           Fe  tau(  10) = (  -0.8176697   2.3127291   0.0000000  )
        11           Fe  tau(  11) = (   2.4530190   0.0000000   0.0000000  )
        12           Fe  tau(  12) = (  -3.2706887   2.3127291   0.0000000  )
        13           Fe  tau(  13) = (   0.8231095   1.1518921   1.9973603  )
        14           Fe  tau(  14) = (  -0.8202043  -1.1551271   2.0036211  )
        15           Fe  tau(  15) = (   1.6413974  -1.1558772   1.9850534  )
        16           Fe  tau(  16) = (  -1.6341757   1.1495936   1.9851887  )
        17           Fe  tau(  17) = (   0.0355005  -0.0229613   4.0383586  )
        18           Fe  tau(  18) = (  -0.8210391   2.3144063   3.9157688  )
        19           Fe  tau(  19) = (   2.5316098  -0.0564489   4.0561048  )
        20           Fe  tau(  20) = (  -3.2376875   2.2860064   4.0386348  )
        21           C   tau(  21) = (   1.8539244   3.8919421   5.4946042  )
        22           O   tau(  22) = (   3.7040444  -0.8854360   6.6443527  )
        23           O   tau(  23) = (   1.2697494   0.8359318   5.1190879  )

   Crystallographic axes

     site n.     atom                  positions (cryst. coord.)
         1           Fe  tau(   1) = (  0.0000000  0.0000000 -0.1954028  )
         2           Fe  tau(   2) = (  0.0000007  0.4999995 -0.1954028  )
         3           Fe  tau(   3) = (  0.4999994  0.0000000 -0.1954028  )
         4           Fe  tau(   4) = ( -0.4999986  0.4999995 -0.1954028  )
         5           Fe  tau(   5) = (  0.2499987  0.2499987 -0.0977019  )
         6           Fe  tau(   6) = ( -0.2499987 -0.2499987 -0.0977019  )
         7           Fe  tau(   7) = (  0.2500007 -0.2499987 -0.0977019  )
         8           Fe  tau(   8) = ( -0.2500007  0.2499987 -0.0977019  )
         9           Fe  tau(   9) = (  0.0000000  0.0000000  0.0000000  )
        10           Fe  tau(  10) = (  0.0000007  0.4999995  0.0000000  )
        11           Fe  tau(  11) = (  0.4999994  0.0000000  0.0000000  )
        12           Fe  tau(  12) = ( -0.4999986  0.4999995  0.0000000  )
        13           Fe  tau(  13) = (  0.2507855  0.2490328  0.0974322  )
        14           Fe  tau(  14) = ( -0.2504265 -0.2497322  0.0977376  )
        15           Fe  tau(  15) = (  0.2512682 -0.2498944  0.0968319  )
        16           Fe  tau(  16) = ( -0.2502491  0.2485359  0.0968385  )
        17           Fe  tau(  17) = (  0.0055814 -0.0049641  0.1969931  )
        18           Fe  tau(  18) = ( -0.0005652  0.5003621  0.1910131  )
        19           Fe  tau(  19) = (  0.5119505 -0.0122039  0.1978588  )
        20           Fe  tau(  20) = ( -0.4951978  0.4942222  0.1970066  )
        21           C   tau(  21) = (  0.6583580  0.8414168  0.2680295  )
        22           O   tau(  22) = (  0.6911873 -0.1914265  0.3241148  )
        23           O   tau(  23) = (  0.3190546  0.1807239  0.2497116  )

     number of k points=    20  Marzari-Vanderbilt smearing, width (Ry)=  0.0400
                       cart. coord. in units 2pi/alat
        k(    1) = (   0.0000000   0.0000000   0.0000000), wk =   0.0625000
        k(    2) = (   0.0000000   0.0540486   0.0000000), wk =   0.1250000
        k(    3) = (   0.0000000  -0.1080973   0.0000000), wk =   0.0625000
        k(    4) = (   0.0509576   0.0180162   0.0000000), wk =   0.1250000
        k(    5) = (   0.0509576   0.0720649   0.0000000), wk =   0.1250000
        k(    6) = (   0.0509576  -0.0900811   0.0000000), wk =   0.1250000
        k(    7) = (   0.0509576  -0.0360324   0.0000000), wk =   0.1250000
        k(    8) = (  -0.1019151  -0.0360324   0.0000000), wk =   0.0625000
        k(    9) = (  -0.1019151   0.0180162   0.0000000), wk =   0.1250000
        k(   10) = (  -0.1019151  -0.1441297   0.0000000), wk =   0.0625000
        k(   11) = (   0.0000000   0.0000000   0.0000000), wk =   0.0625000
        k(   12) = (   0.0000000   0.0540486   0.0000000), wk =   0.1250000
        k(   13) = (   0.0000000  -0.1080973   0.0000000), wk =   0.0625000
        k(   14) = (   0.0509576   0.0180162   0.0000000), wk =   0.1250000
        k(   15) = (   0.0509576   0.0720649   0.0000000), wk =   0.1250000
        k(   16) = (   0.0509576  -0.0900811   0.0000000), wk =   0.1250000
        k(   17) = (   0.0509576  -0.0360324   0.0000000), wk =   0.1250000
        k(   18) = (  -0.1019151  -0.0360324   0.0000000), wk =   0.0625000
        k(   19) = (  -0.1019151   0.0180162   0.0000000), wk =   0.1250000
        k(   20) = (  -0.1019151  -0.1441297   0.0000000), wk =   0.0625000

                       cryst. coord.
        k(    1) = (   0.0000000   0.0000000   0.0000000), wk =   0.0625000
        k(    2) = (   0.0000000   0.2500000   0.0000000), wk =   0.1250000
        k(    3) = (   0.0000000  -0.5000000   0.0000000), wk =   0.0625000
        k(    4) = (   0.2500000   0.0000000   0.0000000), wk =   0.1250000
        k(    5) = (   0.2500000   0.2500000   0.0000000), wk =   0.1250000
        k(    6) = (   0.2500000  -0.5000000   0.0000000), wk =   0.1250000
        k(    7) = (   0.2500000  -0.2500000   0.0000000), wk =   0.1250000
[...]
     1.0234   1.0243   1.0260   1.0335   1.0432   1.0523   1.0657   1.0752
     1.0824   1.0831   1.0833   1.0808   1.0763   1.0732   1.0502   1.0115
     0.9520   0.9234   0.8773   0.7569   0.7500   0.6079   0.6049   0.5559
     0.5018   0.4355   0.4299   0.3985   0.3577   0.2712   0.1616   0.1539
     0.1162   0.0692   0.0604   0.0323   0.0225   0.0112   0.0097   0.0094
     0.0093   0.0087   0.0057   0.0021   0.0020   0.0017   0.0015   0.0011
     0.0003   0.0003   0.0001   0.0001   0.0000   0.0000   0.0000   0.0000
     0.0000   0.0000   0.0000   0.0000   0.0000   0.0000   0.0000   0.0000
     0.0000   0.0000   0.0000   0.0000   0.0000   0.0000   0.0000   0.0000
     0.0000   0.0000   0.0000   0.0000   0.0000   0.0000   0.0000   0.0000
     0.0000   0.0000

     the Fermi energy is     6.9281 ev

!    total energy              =   -6686.76723886 Ry
     Harris-Foulkes estimate   =   -6686.76723886 Ry
     estimated scf accuracy    <          4.9E-09 Ry

     total all-electron energy =    -51288.155835 Ry

     The total energy is the sum of the following terms:

     one-electron contribution =  -29064.69416884 Ry
     hartree contribution      =   14619.96676471 Ry
     xc contribution           =    -715.10396355 Ry
     ewald contribution        =   10021.68632007 Ry
     Hubbard energy            =       0.00000000 Ry
     one-center paw contrib.   =   -1548.74686643 Ry
     smearing contrib. (-TS)   =       0.12467518 Ry

     total magnetization       =    45.02 Bohr mag/cell
     absolute magnetization    =    47.23 Bohr mag/cell

     convergence has been achieved in  32 iterations

     Forces acting on atoms (Ry/au):

     negative rho (up, down):  0.527E-04 0.484E-03
     atom    1 type  1   force =     0.00002149    0.00011332    0.00276659
     atom    2 type  1   force =    -0.00000253    0.00000204    0.00157800
     atom    3 type  1   force =     0.00003039   -0.00002141    0.00175554
     atom    4 type  1   force =    -0.00010158   -0.00005801    0.00276654
     atom    5 type  1   force =     0.00007056   -0.00004047   -0.00046907
     atom    6 type  1   force =     0.00007364   -0.00005231    0.00173924
     atom    7 type  1   force =    -0.00009544    0.00013613    0.00139273
     atom    8 type  1   force =    -0.00016191    0.00005078    0.00139350
     atom    9 type  1   force =    -0.00103663   -0.00144928   -0.00486027
     atom   10 type  1   force =     0.00019853   -0.00020322   -0.00275626
     atom   11 type  1   force =    -0.00002413   -0.00003024   -0.00050726
     atom   12 type  1   force =     0.00097408    0.00138655   -0.00484026
     atom   13 type  1   force =     0.00005143    0.00007130   -0.00002302
     atom   14 type  1   force =    -0.00005086    0.00002015   -0.00005575
     atom   15 type  1   force =     0.00005104    0.00003465   -0.00002063
     atom   16 type  1   force =    -0.00007624    0.00005995   -0.00007172
     atom   17 type  1   force =     0.00001221   -0.00002594    0.00009582
     atom   18 type  1   force =     0.00001862    0.00001906    0.00003412
     atom   19 type  1   force =     0.00002670    0.00003658    0.00009017
     atom   20 type  1   force =    -0.00001989   -0.00002983   -0.00000317
     atom   21 type  2   force =    -0.00000116   -0.00001168   -0.00000331
     atom   22 type  3   force =    -0.00000943    0.00002605   -0.00001792
     atom   23 type  3   force =     0.00005110   -0.00003417    0.00001638
     The non-local contrib.  to forces
     atom    1 type  1   force =    -0.00043401   -0.00002913   -0.20106264
     atom    2 type  1   force =    -0.00006997    0.00004931   -0.19982991
     atom    3 type  1   force =     0.00039505   -0.00027562   -0.20115186
     atom    4 type  1   force =    -0.00011366    0.00042134   -0.20106522
     atom    5 type  1   force =     0.00035028   -0.00023741   -0.03157586
     atom    6 type  1   force =    -0.00046383    0.00033767   -0.03262581
     atom    7 type  1   force =     0.00022273    0.00065352   -0.02947311
     atom    8 type  1   force =    -0.00052479   -0.00041223   -0.02947258
     atom    9 type  1   force =    -0.00073533   -0.00015239    0.00227841
     atom   10 type  1   force =     0.00018545   -0.00007419   -0.00019433
     atom   11 type  1   force =     0.00018764   -0.00009625    0.00175634
     atom   12 type  1   force =    -0.00005730    0.00079704    0.00227944
     atom   13 type  1   force =     0.00315591   -0.00230863    0.06452956
     atom   14 type  1   force =     0.00622836   -0.00438949    0.00452502
     atom   15 type  1   force =    -0.01578614   -0.01877590    0.03839119
     atom   16 type  1   force =     0.01244252    0.02108567    0.03839304
     atom   17 type  1   force =     0.00148005   -0.00389272    0.13147879
     atom   18 type  1   force =     0.06656013   -0.04713278    0.30742278
     atom   19 type  1   force =     0.03126010   -0.02211394    0.13194222
     atom   20 type  1   force =     0.00420189   -0.00002859    0.13149575
     atom   21 type  2   force =     0.20168503   -0.14258054    0.33259816
     atom   22 type  3   force =    -0.44569353    0.31530041   -2.44978927
     atom   23 type  3   force =     0.08371780   -0.05905953   -1.45036247
     The ionic contribution  to forces
     atom    1 type  1   force =    -0.00014027   -0.00026865 -324.60702167
     atom    2 type  1   force =    -0.00006322    0.00019716 -324.60701263
     atom    3 type  1   force =     0.00019605   -0.00022598 -324.60794661
     atom    4 type  1   force =    -0.00000097    0.00029637 -324.60657191
     atom    5 type  1   force =    -0.00161794    0.00218487 -172.04109993
     atom    6 type  1   force =     0.00339689   -0.00337412 -172.03212159
     atom    7 type  1   force =    -0.00338430   -0.00380603 -172.05417626
     atom    8 type  1   force =     0.00148482    0.00514622 -172.05390224
     atom    9 type  1   force =    -0.01207966   -0.06406524  -17.17795968
     atom   10 type  1   force =    -0.04343060    0.02584313  -17.34085755
     atom   11 type  1   force =     0.00119275   -0.00176854  -17.47901073
     atom   12 type  1   force =     0.05501448    0.02800200  -17.17355483
     atom   13 type  1   force =     0.16311582   -0.09932268  138.53603969
     atom   14 type  1   force =    -0.02628554    0.00867105  138.44058437
     atom   15 type  1   force =     0.36228655    0.58107478  137.58609738
     atom   16 type  1   force =    -0.43848189   -0.52402804  137.59249344
     atom   17 type  1   force =    -2.16084565   -1.40422803  291.44315868
     atom   18 type  1   force =     0.94248324   -0.66296523  294.16059916
     atom   19 type  1   force =     0.47266668   -0.33270198  288.86800151
     atom   20 type  1   force =     0.60316072    2.50158249  291.44977362
     atom   21 type  2   force =    -0.13984661    0.10123871   81.84721185
     atom   22 type  3   force =     1.94356397   -1.37394336  118.33786228
     atom   23 type  3   force =    -1.72238531    1.21646111  137.51941364
     The local contribution  to forces
     atom    1 type  1   force =     0.00060163    0.00044723  324.81951715
     atom    2 type  1   force =     0.00013264   -0.00024571  324.81702079
     atom    3 type  1   force =    -0.00053871    0.00046539  324.81949508
     atom    4 type  1   force =    -0.00001886   -0.00079259  324.81906860
     atom    5 type  1   force =     0.00132229   -0.00197650  172.07359249
     atom    6 type  1   force =    -0.00289317    0.00300687  172.06812311
     atom    7 type  1   force =     0.00310588    0.00335465  172.08663540
     atom    8 type  1   force =    -0.00117217   -0.00474305  172.08636066
     atom    9 type  1   force =     0.01180859    0.06275592   17.17063648
     atom   10 type  1   force =     0.04341275   -0.02594281   17.33830909
     atom   11 type  1   force =    -0.00134224    0.00179621   17.47671288
     atom   12 type  1   force =    -0.05395468   -0.02742906   17.16625105
     atom   13 type  1   force =    -0.16570681    0.10132947 -138.60324040
     atom   14 type  1   force =     0.01957744   -0.00395662 -138.44696906
     atom   15 type  1   force =    -0.34709086   -0.56310441 -137.62717625
     atom   16 type  1   force =     0.42654453    0.50387685 -137.63361988
     atom   17 type  1   force =     2.15370377    1.40201991 -291.58554404
     atom   18 type  1   force =    -1.01141516    0.71180226 -294.47794884
     atom   19 type  1   force =    -0.49500809    0.34856024 -288.99855746
     atom   20 type  1   force =    -0.60353870   -2.49420190 -291.59226685
     atom   21 type  2   force =    -0.05898388    0.03931319  -82.18547933
     atom   22 type  3   force =    -1.50129333    1.06108414 -115.90679700
     atom   23 type  3   force =     1.63958270   -1.15804564 -136.08396310
     The core correction contribution to forces
     atom    1 type  1   force =    -0.00000556   -0.00003814   -0.00882355
     atom    2 type  1   force =    -0.00000187    0.00000098   -0.00877295
     atom    3 type  1   force =    -0.00001931    0.00001323   -0.00881243
     atom    4 type  1   force =     0.00003404    0.00001709   -0.00882286
     atom    5 type  1   force =     0.00001716   -0.00001140   -0.00150815
     atom    6 type  1   force =     0.00003514   -0.00002462   -0.00176074
     atom    7 type  1   force =    -0.00003823   -0.00006782   -0.00171988
     atom    8 type  1   force =     0.00005174    0.00005958   -0.00171901
     atom    9 type  1   force =    -0.00002681    0.00001431    0.00008530
     atom   10 type  1   force =     0.00003328   -0.00003098   -0.00007551
     atom   11 type  1   force =    -0.00006186    0.00003812   -0.00002619
     atom   12 type  1   force =    -0.00002898    0.00001256    0.00008485
     atom   13 type  1   force =    -0.00050502    0.00036649    0.00263160
     atom   14 type  1   force =     0.00042226   -0.00029925    0.00178459
     atom   15 type  1   force =     0.00065089    0.00085256    0.00263603
     atom   16 type  1   force =    -0.00058961   -0.00088780    0.00263087
     atom   17 type  1   force =     0.00567720    0.00608297    0.01112119
     atom   18 type  1   force =     0.00240267   -0.00169339    0.01005269
     atom   19 type  1   force =    -0.00889575    0.00629453   -0.00121181
     atom   20 type  1   force =    -0.00385078   -0.00738767    0.01111319
     atom   21 type  2   force =    -0.00285338    0.00201540    0.00567398
     atom   22 type  3   force =     0.00341183   -0.00241397    0.01871003
     atom   23 type  3   force =    -0.00086303    0.00060886    0.01494544
     The Hubbard contrib.    to forces
     atom    1 type  1   force =     0.00000000    0.00000000   -0.00000000
     atom    2 type  1   force =    -0.00000000    0.00000000   -0.00000000
     atom    3 type  1   force =     0.00000000   -0.00000000   -0.00000000
     atom    4 type  1   force =    -0.00000000   -0.00000000   -0.00000000
     atom    5 type  1   force =     0.00000000   -0.00000000   -0.00000000
     atom    6 type  1   force =    -0.00000000    0.00000000    0.00000000
     atom    7 type  1   force =     0.00000000    0.00000000    0.00000000
     atom    8 type  1   force =    -0.00000000   -0.00000000    0.00000000
     atom    9 type  1   force =     0.00000000    0.00000000   -0.00000000
     atom   10 type  1   force =    -0.00000000    0.00000000    0.00000000
     atom   11 type  1   force =    -0.00000000    0.00000000    0.00000000
     atom   12 type  1   force =    -0.00000000   -0.00000000   -0.00000000
     atom   13 type  1   force =     0.00000000   -0.00000000    0.00000000
     atom   14 type  1   force =    -0.00000000    0.00000000    0.00000000
     atom   15 type  1   force =    -0.00000000   -0.00000000   -0.00000000
     atom   16 type  1   force =     0.00000000    0.00000000   -0.00000000
     atom   17 type  1   force =    -0.00000000   -0.00000000    0.00000000
     atom   18 type  1   force =     0.00000000   -0.00000000    0.00000000
     atom   19 type  1   force =     0.00000000   -0.00000000    0.00000000
     atom   20 type  1   force =     0.00000000    0.00000000    0.00000000
     atom   21 type  2   force =     0.00000000   -0.00000000    0.00000000
     atom   22 type  3   force =    -0.00000000    0.00000000   -0.00000000
     atom   23 type  3   force =     0.00000000   -0.00000000    0.00000000
     The SCF correction term to forces
     atom    1 type  1   force =     0.00000000    0.00000000    0.00000000
     atom    2 type  1   force =     0.00000000    0.00000000    0.00000000
     atom    3 type  1   force =     0.00000000    0.00000000    0.00000000
     atom    4 type  1   force =     0.00000000    0.00000000    0.00000000
     atom    5 type  1   force =     0.00000000    0.00000000    0.00000000
     atom    6 type  1   force =     0.00000000    0.00000000    0.00000000
     atom    7 type  1   force =     0.00000000    0.00000000    0.00000000
     atom    8 type  1   force =     0.00000000    0.00000000    0.00000000
     atom    9 type  1   force =     0.00000000    0.00000000    0.00000000
     atom   10 type  1   force =     0.00000000    0.00000000    0.00000000
     atom   11 type  1   force =     0.00000000    0.00000000    0.00000000
     atom   12 type  1   force =     0.00000000    0.00000000    0.00000000
     atom   13 type  1   force =    -0.00000712    0.00000568    0.00000157
     atom   14 type  1   force =     0.00000797   -0.00000650    0.00000437
     atom   15 type  1   force =    -0.00000806   -0.00001334    0.00001605
     atom   16 type  1   force =     0.00000956    0.00001231    0.00001585
     atom   17 type  1   force =    -0.00000181   -0.00000903   -0.00013375
     atom   18 type  1   force =    -0.00001091    0.00000724   -0.00010663
     atom   19 type  1   force =     0.00000512   -0.00000325   -0.00009925
     atom   20 type  1   force =     0.00000832    0.00000487   -0.00013385
     atom   21 type  2   force =    -0.00000098    0.00000060   -0.00002293
     atom   22 type  3   force =     0.00000297   -0.00000214   -0.00001891
     atom   23 type  3   force =     0.00000029    0.00000006   -0.00003208

     Total force =     0.000249     Total SCF correction =     0.000246
     SCF correction compared to forces is large: reduce conv_thr to get better values

     entering subroutine stress ...

     negative rho (up, down):  0.527E-04 0.484E-03
          total   stress  (Ry/bohr**3)                   (kbar)     P=   -7.28
  -0.00004384  -0.00004667   0.00000052         -6.45     -6.87      0.08
  -0.00004667  -0.00007683  -0.00000008         -6.87    -11.30     -0.01
   0.00000052  -0.00000008  -0.00002774          0.08     -0.01     -4.08

     kinetic stress (kbar)  41182.86     -1.54    -17.18
                               -1.54  41181.77     12.26
                              -17.18     12.26  40997.88

     local   stress (kbar)**********    700.48   -305.42
                              700.48**********    211.79
                             -305.42    211.791287429.41

     nonloc. stress (kbar) -30889.35     13.85     -3.76
                               13.85 -30879.57      2.54
                               -3.76      2.54 -30764.31

     hartree stress (kbar) 642726.22   -258.06     80.75
                             -258.06 642544.17    -55.55
                               80.75    -55.55-600198.22

     exc-cor stress (kbar)  -1469.45     -0.56      0.85
                               -0.56  -1469.85     -0.60
                                0.85     -0.60  -1473.22

     corecor stress (kbar)  -8243.29     -0.12     -0.25
                               -0.12  -8243.38      0.18
                               -0.25      0.18  -8243.85

     ewald   stress (kbar) 578839.95   -460.92    245.09
                             -460.92 578514.68   -170.63
                              245.09   -170.63-687751.76

     hubbard stress (kbar)     -0.00      0.00     -0.00
                                0.00     -0.00      0.00
                               -0.00      0.00     -0.00

     london  stress (kbar)      0.00      0.00      0.00
                                0.00      0.00      0.00
                                0.00      0.00      0.00

     dft-nl  stress (kbar)      0.00      0.00      0.00
                                0.00      0.00      0.00
                                0.00      0.00      0.00

     Writing output data file Fe_110_2x2_SB_CO_O_25ML.save

     General routines

     Parallel routines
     Hubbard U routines

     PAW routines

   This run was terminated on:  12:31:23   4Aug2015

   JOB DONE.
Application 16679026 resources: utime ~118703s, stime ~4038s, Rss ~535528, inblocks ~5621101510, outblocks ~907025509