     Program PWSCF v.5.0.2 (svn rev. 9656) starts on 18Sep2015 at 10:30:49

     Current dimensions of program PWSCF are:
     Max number of different atomic species (ntypx) = 10
     Max number of k-points (npk) =  40000
     Max angular momentum in pseudopotentials (lmaxx) =  3
     Reading input from Fe_100_2x2_H2S_FH_scf.in
Warning: card  &IONS ignored
Warning: card  / ignored
Warning: card  &CELL ignored
Warning: card    PRESS=0.0 ignored
Warning: card    PRESS_CONV_THR=0.1 ignored
Warning: card  / ignored

     IMPORTANT: XC functional enforced from input :
     Exchange-correlation      = PBE ( 1 4 3 4 0)
     EXX-fraction              =        0.00
     Any further DFT definition will be discarded
     Please, verify this is what you really want

               file Fe.pbe-spn-kjpaw_psl.0.2.1.UPF: wavefunction(s)  3D renormalized
               file S.pbe-n-kjpaw_psl.0.1.UPF: wavefunction(s)  3P renormalized
               file H.pbe-kjpaw_psl.0.1.upf: wavefunction(s)  1S renormalized

   Task Groups are in USE
   groups and procs/group :     2    6

     bravais-lattice index     =            0
     lattice parameter (alat)  =       1.8897  a.u.
     unit-cell volume          =    3898.2644 (a.u.)^3
     number of atoms/cell      =           23
     number of atomic types    =            3
     number of electrons       =       328.00
     number of Kohn-Sham states=          197
     kinetic-energy cutoff     =      95.0000  Ry
     charge density cutoff     =     800.0000  Ry
     convergence threshold     =      1.0E-08
     mixing beta               =       0.5000
     number of iterations used =            8  local-TF  mixing
     Exchange-correlation      = PBE ( 1 4 3 4 0)
     EXX-fraction              =        0.00

     celldm(1)=   1.889727  celldm(2)=   0.000000  celldm(3)=   0.000000
     celldm(4)=   0.000000  celldm(5)=   0.000000  celldm(6)=   0.000000

     crystal axes: (cart. coord. in units of alat)
               a(1) = (   5.665012   0.000000   0.000000 )
               a(2) = (   0.000000   5.665012   0.000000 )
               a(3) = (   0.000000   0.000000  18.000000 )

     reciprocal axes: (cart. coord. in units 2 pi/alat)
               b(1) = (  0.176522 -0.000000  0.000000 )
               b(2) = (  0.000000  0.176522  0.000000 )
               b(3) = (  0.000000  0.000000  0.055556 )

     PseudoPot. # 1 for Fe read from file:
     /work/e05/e05/ablar/QE_PSEUDO/Fe.pbe-spn-kjpaw_psl.0.2.1.UPF
     MD5 check sum: a0a08122d52b112de96d1da1d7dd020f
     Pseudo is Projector augmented-wave + core cor, Zval = 16.0
     Generated using "atomic" code by A. Dal Corso  v.5.0.2 svn rev. 9415
     Shape of augmentation charge: PSQ
     Using radial grid of 1191 points,  6 beta functions with:
                l(1) =   0
                l(2) =   0
                l(3) =   1
                l(4) =   1
                l(5) =   2
                l(6) =   2
     Q(r) pseudized with 0 coefficients

     PseudoPot. # 2 for  S read from file:
     /work/e05/e05/ablar/QE_PSEUDO/S.pbe-n-kjpaw_psl.0.1.UPF
     MD5 check sum: 4d0aa7498161b95d6b336a838fdb998f
     Pseudo is Projector augmented-wave + core cor, Zval =  6.0
     Generated using "atomic" code by A. Dal Corso  v.5.0.2 svn rev. 9415
     Shape of augmentation charge: PSQ
     Using radial grid of 1151 points,  4 beta functions with:
                l(1) =   0
                l(2) =   0
                l(3) =   1
                l(4) =   1
     Q(r) pseudized with 0 coefficients

     PseudoPot. # 3 for  H read from file:
     /work/e05/e05/ablar/QE_PSEUDO/H.pbe-kjpaw_psl.0.1.upf
     MD5 check sum: 94e484f906d9e9773b2f6e52662335b2
     Pseudo is Projector augmented-wave, Zval =  1.0
     Generated using "atomic" code by A. Dal Corso  v.5.0.99 svn rev. 10869
     Shape of augmentation charge: PSQ
     Using radial grid of  929 points,  2 beta functions with:
                l(1) =   0
                l(2) =   0
     Q(r) pseudized with 0 coefficients

     atomic species   valence    mass     pseudopotential
        Fe            16.00    55.85000     Fe( 1.00)
        S              6.00    32.00000      S( 1.00)
        H              1.00     1.00000      H( 1.00)

     Starting magnetic structure
     atomic species   magnetization
        Fe           0.600
        S            0.000
        H            0.000

     Simplified LDA+U calculation (l_max = 2) with parameters (eV):
     atomic species    L          U    alpha       J0     beta
        Fe             2     0.0000   0.0000   0.0000   0.0000

     No symmetry found

                                    s                        frac. trans.

      isym =  1     identity

 cryst.   s( 1) = (     1          0          0      )
                  (     0          1          0      )
                  (     0          0          1      )

 cart.    s( 1) = (  1.0000000  0.0000000  0.0000000 )
                  (  0.0000000  1.0000000  0.0000000 )
                  (  0.0000000  0.0000000  1.0000000 )

     point group C_1 (1)
     there are  1 classes
     the character table:

       E
A      1.00

     the symmetry operations in each class:
     E        1

   Cartesian axes

     site n.     atom                  positions (alat units)
         1           Fe  tau(   1) = (   0.0000000   0.0000000  -2.8324989  )
         2           Fe  tau(   2) = (   0.0000000   2.8325089  -2.8324989  )
         3           Fe  tau(   3) = (   2.8325089   0.0000000  -2.8324989  )
         4           Fe  tau(   4) = (   2.8324989   2.8325089  -2.8324989  )
         5           Fe  tau(   5) = (   1.4162494   1.4162494  -1.4162594  )
         6           Fe  tau(   6) = (   1.4162494  -1.4162494  -1.4162594  )
         7           Fe  tau(   7) = (  -1.4162494   1.4162494  -1.4162594  )
         8           Fe  tau(   8) = (  -1.4162494  -1.4162494  -1.4162594  )
         9           Fe  tau(   9) = (   0.0000000   0.0000000   0.0000000  )
        10           Fe  tau(  10) = (   0.0000000   2.8324989   0.0000000  )
        11           Fe  tau(  11) = (   2.8324989   0.0000000   0.0000000  )
        12           Fe  tau(  12) = (   2.8324989   2.8324989   0.0000000  )
        13           Fe  tau(  13) = (   1.4138467   1.4162527   1.4196745  )
        14           Fe  tau(  14) = (   1.4158217  -1.4162286   1.4461312  )
        15           Fe  tau(  15) = (  -1.4194167   1.4162747   1.4190702  )
        16           Fe  tau(  16) = (  -1.4159051  -1.4162627   1.4248894  )
        17           Fe  tau(  17) = (  -0.0625359  -0.0472711   2.8616925  )
        18           Fe  tau(  18) = (  -0.0624118   2.8798509   2.8616081  )
        19           Fe  tau(  19) = (   2.8952500  -0.0288764   2.8784457  )
        20           Fe  tau(  20) = (   2.8953157   2.8613010   2.8784124  )
        21           S   tau(  21) = (   1.3990505   1.4162486   3.9178257  )
        22           H   tau(  22) = (   1.7610618   4.2488055   3.1499795  )
        23           H   tau(  23) = (   4.1756900   1.4149696   3.1339379  )

   Crystallographic axes

     site n.     atom                  positions (cryst. coord.)
         1           Fe  tau(   1) = (  0.0000000  0.0000000 -0.1573610  )
         2           Fe  tau(   2) = ( -0.0000000  0.5000005 -0.1573610  )
         3           Fe  tau(   3) = (  0.5000005  0.0000000 -0.1573610  )
         4           Fe  tau(   4) = (  0.4999987  0.5000005 -0.1573610  )
         5           Fe  tau(   5) = (  0.2499994  0.2499994 -0.0786811  )
         6           Fe  tau(   6) = (  0.2499994 -0.2499994 -0.0786811  )
         7           Fe  tau(   7) = ( -0.2499994  0.2499994 -0.0786811  )
         8           Fe  tau(   8) = ( -0.2499994 -0.2499994 -0.0786811  )
         9           Fe  tau(   9) = (  0.0000000  0.0000000  0.0000000  )
        10           Fe  tau(  10) = ( -0.0000000  0.4999987  0.0000000  )
        11           Fe  tau(  11) = (  0.4999987  0.0000000  0.0000000  )
        12           Fe  tau(  12) = (  0.4999987  0.4999987  0.0000000  )
        13           Fe  tau(  13) = (  0.2495752  0.2499999  0.0788708  )
        14           Fe  tau(  14) = (  0.2499239 -0.2499957  0.0803406  )
        15           Fe  tau(  15) = ( -0.2505585  0.2500038  0.0788372  )
        16           Fe  tau(  16) = ( -0.2499386 -0.2500017  0.0791605  )
        17           Fe  tau(  17) = ( -0.0110390 -0.0083444  0.1589829  )
        18           Fe  tau(  18) = ( -0.0110171  0.5083574  0.1589782  )
        19           Fe  tau(  19) = (  0.5110757 -0.0050973  0.1599136  )
        20           Fe  tau(  20) = (  0.5110873  0.5050829  0.1599118  )
        21           S   tau(  21) = (  0.2469634  0.2499992  0.2176570  )
        22           H   tau(  22) = (  0.3108664  0.7500082  0.1749989  )
        23           H   tau(  23) = (  0.7371017  0.2497734  0.1741077  )

     number of k points=    20  Marzari-Vanderbilt smearing, width (Ry)=  0.0400
                       cart. coord. in units 2pi/alat
        k(    1) = (   0.0000000   0.0000000   0.0000000), wk =   0.0625000
        k(    2) = (   0.0000000   0.0441305   0.0000000), wk =   0.1250000
        k(    3) = (   0.0000000  -0.0882611   0.0000000), wk =   0.0625000
        k(    4) = (   0.0441305   0.0441305   0.0000000), wk =   0.1250000
        k(    5) = (   0.0441305  -0.0882611   0.0000000), wk =   0.1250000
        k(    6) = (  -0.0882611  -0.0882611   0.0000000), wk =   0.0625000
        k(    7) = (   0.0441305  -0.0000000   0.0000000), wk =   0.1250000
        k(    8) = (  -0.0882611   0.0000000   0.0000000), wk =   0.0625000
        k(    9) = (  -0.0441305   0.0441305   0.0000000), wk =   0.1250000
        k(   10) = (  -0.0882611   0.0441305   0.0000000), wk =   0.1250000
        k(   11) = (   0.0000000   0.0000000   0.0000000), wk =   0.0625000
        k(   12) = (   0.0000000   0.0441305   0.0000000), wk =   0.1250000
        k(   13) = (   0.0000000  -0.0882611   0.0000000), wk =   0.0625000
        k(   14) = (   0.0441305   0.0441305   0.0000000), wk =   0.1250000
        k(   15) = (   0.0441305  -0.0882611   0.0000000), wk =   0.1250000
        k(   16) = (  -0.0882611  -0.0882611   0.0000000), wk =   0.0625000
        k(   17) = (   0.0441305  -0.0000000   0.0000000), wk =   0.1250000
        k(   18) = (  -0.0882611   0.0000000   0.0000000), wk =   0.0625000
        k(   19) = (  -0.0441305   0.0441305   0.0000000), wk =   0.1250000
        k(   20) = (  -0.0882611   0.0441305   0.0000000), wk =   0.1250000

                       cryst. coord.
        k(    1) = (   0.0000000   0.0000000   0.0000000), wk =   0.0625000
        k(    2) = (   0.0000000   0.2500000   0.0000000), wk =   0.1250000
        k(    3) = (   0.0000000  -0.5000000   0.0000000), wk =   0.0625000
        k(    4) = (   0.2500000   0.2500000   0.0000000), wk =   0.1250000
        k(    5) = (   0.2500000  -0.5000000   0.0000000), wk =   0.1250000
        k(    6) = (  -0.5000000  -0.5000000   0.0000000), wk =   0.0625000
        k(    7) = (   0.2500000   0.0000000   0.0000000), wk =   0.1250000
        k(    8) = (  -0.5000000  -0.0000000   0.0000000), wk =   0.0625000
[...]
     1.0222   1.0256   1.0327   1.0370   1.0392   1.0410   1.0423   1.0512
     1.0559   1.0718   1.0740   1.0832   1.0831   1.0400   0.8857   0.7859
     0.6522   0.5507   0.3326   0.3021   0.2701   0.1677   0.1214   0.1140
     0.0891   0.0604   0.0452   0.0348   0.0301   0.0158   0.0049   0.0015
     0.0010   0.0005   0.0002   0.0002   0.0001   0.0001   0.0001   0.0001
     0.0001   0.0001   0.0001   0.0000   0.0000   0.0000   0.0000   0.0000
     0.0000   0.0000   0.0000   0.0000   0.0000   0.0000   0.0000   0.0000
     0.0000   0.0000   0.0000   0.0000   0.0000   0.0000   0.0000   0.0000
     0.0000   0.0000   0.0000   0.0000   0.0000   0.0000   0.0000   0.0000
     0.0000   0.0000   0.0000   0.0000   0.0000

     the Fermi energy is     5.3420 ev

!    total energy              =   -6653.55143183 Ry
     Harris-Foulkes estimate   =   -6653.55143183 Ry
     estimated scf accuracy    <          3.9E-09 Ry

     total all-electron energy =    -51711.583271 Ry

     The total energy is the sum of the following terms:

     one-electron contribution =  -26139.97216279 Ry
     hartree contribution      =   13131.99587539 Ry
     xc contribution           =    -705.04437085 Ry
     ewald contribution        =    8626.51996658 Ry
     Hubbard energy            =       0.00000000 Ry
     one-center paw contrib.   =   -1567.13777068 Ry
     smearing contrib. (-TS)   =       0.08703052 Ry

     total magnetization       =    50.25 Bohr mag/cell
     absolute magnetization    =    52.52 Bohr mag/cell

     convergence has been achieved in  27 iterations

     Forces acting on atoms (Ry/au):

     negative rho (up, down):  0.539E-04 0.124E-02
     atom    1 type  1   force =    -0.00022761   -0.00009773    0.00358415
     atom    2 type  1   force =    -0.00022779    0.00009703    0.00358556
     atom    3 type  1   force =     0.00025115   -0.00022057    0.00351406
     atom    4 type  1   force =     0.00025194    0.00021946    0.00351515
     atom    5 type  1   force =    -0.00004288    0.00000159   -0.00946648
     atom    6 type  1   force =     0.00020836   -0.00000015   -0.00566141
     atom    7 type  1   force =    -0.00060425    0.00000067   -0.00685920
     atom    8 type  1   force =    -0.00005016   -0.00000268   -0.00729968
     atom    9 type  1   force =     0.00068240   -0.00289939    0.00398422
     atom   10 type  1   force =     0.00068198    0.00290120    0.00398234
     atom   11 type  1   force =    -0.00034807   -0.00129476    0.00351691
     atom   12 type  1   force =    -0.00034358    0.00129456    0.00351669
     atom   13 type  1   force =    -0.00004686   -0.00000235    0.00001233
     atom   14 type  1   force =     0.00004368    0.00000159   -0.00007493
     atom   15 type  1   force =    -0.00009131   -0.00000303   -0.00003765
     atom   16 type  1   force =     0.00004573    0.00000236    0.00003334
     atom   17 type  1   force =    -0.00005049   -0.00001037    0.00008091
     atom   18 type  1   force =    -0.00005382    0.00001540    0.00006943
     atom   19 type  1   force =    -0.00004087    0.00004256   -0.00002382
     atom   20 type  1   force =    -0.00003837   -0.00004131   -0.00003283
     atom   21 type  2   force =    -0.00007401   -0.00000114    0.00000088
     atom   22 type  3   force =     0.00001299   -0.00000135    0.00008113
     atom   23 type  3   force =     0.00006185   -0.00000160   -0.00002110
     The non-local contrib.  to forces
     atom    1 type  1   force =     0.00004833   -0.00114182   -0.39161275
     atom    2 type  1   force =     0.00003866    0.00114152   -0.39161364
     atom    3 type  1   force =     0.00015725   -0.00017020   -0.39176440
     atom    4 type  1   force =     0.00016320    0.00016865   -0.39176684
     atom    5 type  1   force =     0.00017111    0.00000154   -0.02833545
     atom    6 type  1   force =     0.00044644   -0.00000309   -0.03214154
     atom    7 type  1   force =     0.00028393   -0.00000321   -0.03382602
     atom    8 type  1   force =     0.00023484    0.00000039   -0.03373587
     atom    9 type  1   force =    -0.00281788    0.00083311   -0.00321805
     atom   10 type  1   force =    -0.00280947   -0.00082771   -0.00322578
     atom   11 type  1   force =     0.00218402   -0.00054516   -0.00172884
     atom   12 type  1   force =     0.00217901    0.00054550   -0.00172743
     atom   13 type  1   force =    -0.00543787    0.00002601    0.21755096
     atom   14 type  1   force =     0.01730279   -0.00002098    0.17240472
     atom   15 type  1   force =     0.00058686   -0.00007091    0.18433242
     atom   16 type  1   force =    -0.00259915    0.00002267   -0.01687564
     atom   17 type  1   force =     0.09501593    0.10025460    0.34716428
     atom   18 type  1   force =     0.09503721   -0.10030632    0.34727668
     atom   19 type  1   force =    -0.08001333    0.09599663    0.31539307
     atom   20 type  1   force =    -0.07995893   -0.09608722    0.31556172
     atom   21 type  2   force =     0.01681528   -0.00004743   -0.22755981
     atom   22 type  3   force =     0.00823965    0.00000443   -0.01506591
     atom   23 type  3   force =    -0.00227715   -0.00003741   -0.01528160
     The ionic contribution  to forces
     atom    1 type  1   force =     0.02830919   -0.01203739 -262.48754426
     atom    2 type  1   force =     0.02811659    0.01201021 -262.48731372
     atom    3 type  1   force =    -0.02841870   -0.01299774 -262.48353683
     atom    4 type  1   force =    -0.02814113    0.01297070 -262.48330044
     atom    5 type  1   force =     0.00720105    0.00020395 -142.45135258
     atom    6 type  1   force =     0.01374617   -0.00028192 -142.22573403
     atom    7 type  1   force =    -0.00228062    0.00027938 -142.64890687
     atom    8 type  1   force =    -0.01355227   -0.00034774 -142.59515969
     atom    9 type  1   force =     0.57472833   -0.11583313   -7.86231539
     atom   10 type  1   force =     0.57535762    0.11615213   -7.86328305
     atom   11 type  1   force =    -0.60656874   -0.19513136   -7.75856613
     atom   12 type  1   force =    -0.60732217    0.19556895   -7.75905542
     atom   13 type  1   force =    -0.05652868   -0.00056904  125.85975085
     atom   14 type  1   force =     0.10035366    0.00005178  127.43037862
     atom   15 type  1   force =     0.24712792    0.00024970  124.21578004
     atom   16 type  1   force =    -0.41290364    0.00048236  124.65940426
     atom   17 type  1   force =     0.20421512   -1.42275506  250.89339145
     atom   18 type  1   force =     0.19957808    1.42005801  250.89128321
     atom   19 type  1   force =     0.25410489   -1.55662249  251.18902292
     atom   20 type  1   force =     0.25762264    1.55507652  251.18940386
     atom   21 type  2   force =    -0.22068042    0.00043305  108.61791439
     atom   22 type  3   force =    -0.74494413   -0.00035658   18.07432606
     atom   23 type  3   force =     0.23087925    0.00339570   18.08541274
     The local contribution  to forces
     atom    1 type  1   force =    -0.02862673    0.01305797  262.89565731
     atom    2 type  1   force =    -0.02842452   -0.01303037  262.89542802
     atom    3 type  1   force =     0.02856114    0.01291379  262.89172477
     atom    4 type  1   force =     0.02827786   -0.01288525  262.89149316
     atom    5 type  1   force =    -0.00742245   -0.00020319  142.47038643
     atom    6 type  1   force =    -0.01378746    0.00028493  142.25282764
     atom    7 type  1   force =     0.00141098   -0.00027578  142.67651761
     atom    8 type  1   force =     0.01320977    0.00034531  142.62226943
     atom    9 type  1   force =    -0.57120147    0.11210889    7.86933613
     atom   10 type  1   force =    -0.57184027   -0.11243200    7.87030654
     atom   11 type  1   force =     0.60412569    0.19442402    7.76344071
     atom   12 type  1   force =     0.60488897   -0.19486208    7.76392442
     atom   13 type  1   force =     0.06182069    0.00053442 -126.08443959
     atom   14 type  1   force =    -0.11939483   -0.00001986 -127.60545116
     atom   15 type  1   force =    -0.24775939   -0.00018319 -124.40287288
     atom   16 type  1   force =     0.41630262   -0.00049471 -124.64029279
     atom   17 type  1   force =    -0.30115200    1.32033927 -251.25126557
     atom   18 type  1   force =    -0.29653737   -1.31758420 -251.24928453
     atom   19 type  1   force =    -0.17218398    1.45849169 -251.51419438
     atom   20 type  1   force =    -0.17575585   -1.45684978 -251.51475833
     atom   21 type  2   force =     0.20462151   -0.00039377 -108.39975824
     atom   22 type  3   force =     0.73671758    0.00035256  -18.05918566
     atom   23 type  3   force =    -0.22854177   -0.00336097  -18.07015747
     The core correction contribution to forces
     atom    1 type  1   force =     0.00004529    0.00004323   -0.01286024
     atom    2 type  1   force =     0.00004499   -0.00004330   -0.01286016
     atom    3 type  1   force =    -0.00005290    0.00005346   -0.01285383
     atom    4 type  1   force =    -0.00005262   -0.00005358   -0.01285381
     atom    5 type  1   force =     0.00000781   -0.00000003   -0.00009297
     atom    6 type  1   force =    -0.00019738    0.00000009   -0.00054238
     atom    7 type  1   force =    -0.00002046    0.00000088   -0.00057537
     atom    8 type  1   force =     0.00005601   -0.00000025   -0.00058719
     atom    9 type  1   force =    -0.00002925   -0.00000430    0.00022144
     atom   10 type  1   force =    -0.00002828    0.00000554    0.00022032
     atom   11 type  1   force =    -0.00008737   -0.00003800    0.00041444
     atom   12 type  1   force =    -0.00008794    0.00003870    0.00041382
     atom   13 type  1   force =     0.00010364   -0.00000109    0.00712358
     atom   14 type  1   force =     0.00178854   -0.00000052    0.00255357
     atom   15 type  1   force =    -0.00005433   -0.00000723    0.00267634
     atom   16 type  1   force =    -0.00076308    0.00000239   -0.00224778
     atom   17 type  1   force =     0.00186993    0.00213977    0.01072679
     atom   18 type  1   force =     0.00186868   -0.00213875    0.01072985
     atom   19 type  1   force =    -0.00194736    0.00216794    0.00968539
     atom   20 type  1   force =    -0.00194602   -0.00217046    0.00968919
     atom   21 type  2   force =    -0.00082778    0.00000231    0.00934737
     atom   22 type  3   force =     0.00000000    0.00000000    0.00000000
     atom   23 type  3   force =     0.00000000    0.00000000    0.00000000
     The Hubbard contrib.    to forces
     atom    1 type  1   force =    -0.00000000   -0.00000000   -0.00000000
     atom    2 type  1   force =    -0.00000000    0.00000000   -0.00000000
     atom    3 type  1   force =     0.00000000   -0.00000000   -0.00000000
     atom    4 type  1   force =     0.00000000    0.00000000   -0.00000000
     atom    5 type  1   force =    -0.00000000    0.00000000   -0.00000000
     atom    6 type  1   force =     0.00000000    0.00000000   -0.00000000
     atom    7 type  1   force =    -0.00000000   -0.00000000   -0.00000000
     atom    8 type  1   force =    -0.00000000    0.00000000   -0.00000000
     atom    9 type  1   force =    -0.00000000   -0.00000000    0.00000000
     atom   10 type  1   force =    -0.00000000    0.00000000    0.00000000
     atom   11 type  1   force =     0.00000000   -0.00000000    0.00000000
     atom   12 type  1   force =     0.00000000    0.00000000    0.00000000
     atom   13 type  1   force =    -0.00000000    0.00000000   -0.00000000
     atom   14 type  1   force =     0.00000000    0.00000000    0.00000000
     atom   15 type  1   force =    -0.00000000   -0.00000000    0.00000000
     atom   16 type  1   force =     0.00000000   -0.00000000    0.00000000
     atom   17 type  1   force =     0.00000000    0.00000000    0.00000000
     atom   18 type  1   force =     0.00000000   -0.00000000    0.00000000
     atom   19 type  1   force =    -0.00000000    0.00000000    0.00000000
     atom   20 type  1   force =    -0.00000000   -0.00000000    0.00000000
     atom   21 type  2   force =    -0.00000000    0.00000000    0.00000000
     atom   22 type  3   force =     0.00000000    0.00000000   -0.00000000
     atom   23 type  3   force =    -0.00000000   -0.00000000   -0.00000000
     The SCF correction term to forces
     atom    1 type  1   force =     0.00000000    0.00000000    0.00000000
     atom    2 type  1   force =     0.00000000    0.00000000    0.00000000
     atom    3 type  1   force =     0.00000000    0.00000000    0.00000000
     atom    4 type  1   force =     0.00000000    0.00000000    0.00000000
     atom    5 type  1   force =     0.00000000    0.00000000    0.00000000
     atom    6 type  1   force =     0.00000000    0.00000000    0.00000000
     atom    7 type  1   force =     0.00000000    0.00000000    0.00000000
     atom    8 type  1   force =     0.00000000    0.00000000    0.00000000
     atom    9 type  1   force =     0.00000000    0.00000000    0.00000000
     atom   10 type  1   force =     0.00000000    0.00000000    0.00000000
     atom   11 type  1   force =     0.00000000    0.00000000    0.00000000
     atom   12 type  1   force =     0.00000000    0.00000000    0.00000000
     atom   13 type  1   force =    -0.00000531    0.00000773    0.00002664
     atom   14 type  1   force =    -0.00000716   -0.00000845    0.00003942
     atom   15 type  1   force =     0.00000695    0.00000897    0.00004653
     atom   16 type  1   force =     0.00000830   -0.00000999    0.00004539
     atom   17 type  1   force =    -0.00000016    0.00001144    0.00006407
     atom   18 type  1   force =    -0.00000111   -0.00001296    0.00006433
     atom   19 type  1   force =    -0.00000177    0.00000916    0.00006928
     atom   20 type  1   force =    -0.00000089   -0.00000999    0.00007084
     atom   21 type  2   force =    -0.00000329    0.00000508    0.00005728
     atom   22 type  3   force =    -0.00000078   -0.00000139    0.00000674
     atom   23 type  3   force =     0.00000083    0.00000145    0.00000534

     Total force =     0.000255     Total SCF correction =     0.000170
     SCF correction compared to forces is large: reduce conv_thr to get better values

     entering subroutine stress ...

     negative rho (up, down):  0.539E-04 0.124E-02
          total   stress  (Ry/bohr**3)                   (kbar)     P=  -10.66
  -0.00010442   0.00000002  -0.00000019        -15.36      0.00     -0.03
   0.00000002  -0.00011526  -0.00000000          0.00    -16.96     -0.00
  -0.00000019  -0.00000000   0.00000229         -0.03     -0.00      0.34

     kinetic stress (kbar)  32118.98      0.01     -3.71
                                0.01  32113.73      0.02
                               -3.71      0.02  32028.82

     local   stress (kbar)-871572.78     -0.10      9.55
                               -0.10-871548.53      0.03
                                9.55      0.03 922755.11

     nonloc. stress (kbar) -24668.39     -0.01      3.04
                               -0.01 -24668.02     -0.01
                                3.04     -0.01 -24597.55

     hartree stress (kbar) 460771.87      0.03     -6.03
                                0.03 460762.05     -0.00
                               -6.03     -0.00-425984.42

     exc-cor stress (kbar)  -1007.13      0.00     -0.02
                                0.00  -1007.14      0.00
                               -0.02      0.00  -1013.99

     corecor stress (kbar)  -6682.11     -0.00     -0.09
                               -0.00  -6682.06      0.00
                               -0.09      0.00  -6681.10

     ewald   stress (kbar) 411024.20      0.07     -2.76
                                0.07 411013.02     -0.03
                               -2.76     -0.03-496506.54

     hubbard stress (kbar)     -0.00     -0.00     -0.00
                               -0.00     -0.00      0.00
                               -0.00      0.00     -0.00

     london  stress (kbar)      0.00      0.00      0.00
                                0.00      0.00      0.00
                                0.00      0.00      0.00

     dft-nl  stress (kbar)      0.00      0.00      0.00
                                0.00      0.00      0.00
                                0.00      0.00      0.00

     Writing output data file Fe_100_2x2_H2S_FH.save

     General routines

     Parallel routines
     Hubbard U routines

     PAW routines

   This run was terminated on:  11:18:34  18Sep2015

   JOB DONE.
Application 17617972 resources: utime ~132733s, stime ~4186s, Rss ~621400, inblocks ~5906062478, outblocks ~938812400