     Program PWSCF v.5.0.2 (svn rev. 9656) starts on 12Dec2015 at  4:49:13

     Current dimensions of program PWSCF are:
     Max number of different atomic species (ntypx) = 10
     Max number of k-points (npk) =  40000
     Max angular momentum in pseudopotentials (lmaxx) =  3
     Reading input from Fe_110_2x2_H2S_SB_scf.in
Warning: card  &IONS ignored
Warning: card  / ignored
Warning: card  &CELL ignored
Warning: card    PRESS=0.0 ignored
Warning: card    PRESS_CONV_THR=0.1 ignored
Warning: card  / ignored

     IMPORTANT: XC functional enforced from input :
     Exchange-correlation      = PBE ( 1 4 3 4 0)
     EXX-fraction              =        0.00
     Any further DFT definition will be discarded
     Please, verify this is what you really want

               file Fe.pbe-spn-kjpaw_psl.0.2.1.UPF: wavefunction(s)  3D renormalized
               file S.pbe-n-kjpaw_psl.0.1.UPF: wavefunction(s)  3P renormalized
               file H.pbe-kjpaw_psl.0.1.upf: wavefunction(s)  1S renormalized

   Task Groups are in USE
   groups and procs/group :     2    6

     bravais-lattice index     =            0
     lattice parameter (alat)  =       1.8897  a.u.
     unit-cell volume          =    3139.3349 (a.u.)^3
     number of atoms/cell      =           23
     number of atomic types    =            3
     number of electrons       =       328.00
     number of Kohn-Sham states=          197
     kinetic-energy cutoff     =      95.0000  Ry
     charge density cutoff     =     800.0000  Ry
     convergence threshold     =      1.0E-08
     mixing beta               =       0.5000
     number of iterations used =            8  local-TF  mixing
     Exchange-correlation      = PBE ( 1 4 3 4 0)
     EXX-fraction              =        0.00

     celldm(1)=   1.889727  celldm(2)=   0.000000  celldm(3)=   0.000000
     celldm(4)=   0.000000  celldm(5)=   0.000000  celldm(6)=   0.000000

     crystal axes: (cart. coord. in units of alat)
               a(1) = (   4.906044   0.000000   0.000000 )
               a(2) = (  -1.635348   4.625463   0.000000 )
               a(3) = (   0.000000   0.000000  20.500000 )

     reciprocal axes: (cart. coord. in units 2 pi/alat)
               b(1) = (  0.203830  0.072065  0.000000 )
               b(2) = (  0.000000  0.216195  0.000000 )
               b(3) = (  0.000000  0.000000  0.048780 )

     PseudoPot. # 1 for Fe read from file:
     /work/e05/e05/ablar/QE_PSEUDO/Fe.pbe-spn-kjpaw_psl.0.2.1.UPF
     MD5 check sum: a0a08122d52b112de96d1da1d7dd020f
     Pseudo is Projector augmented-wave + core cor, Zval = 16.0
     Generated using "atomic" code by A. Dal Corso  v.5.0.2 svn rev. 9415
     Shape of augmentation charge: PSQ
     Using radial grid of 1191 points,  6 beta functions with:
                l(1) =   0
                l(2) =   0
                l(3) =   1
                l(4) =   1
                l(5) =   2
                l(6) =   2
     Q(r) pseudized with 0 coefficients

     PseudoPot. # 2 for  S read from file:
     /work/e05/e05/ablar/QE_PSEUDO/S.pbe-n-kjpaw_psl.0.1.UPF
     MD5 check sum: 4d0aa7498161b95d6b336a838fdb998f
     Pseudo is Projector augmented-wave + core cor, Zval =  6.0
     Generated using "atomic" code by A. Dal Corso  v.5.0.2 svn rev. 9415
     Shape of augmentation charge: PSQ
     Using radial grid of 1151 points,  4 beta functions with:
                l(1) =   0
                l(2) =   0
                l(3) =   1
                l(4) =   1
     Q(r) pseudized with 0 coefficients

     PseudoPot. # 3 for  H read from file:
     /work/e05/e05/ablar/QE_PSEUDO/H.pbe-kjpaw_psl.0.1.upf
     MD5 check sum: 94e484f906d9e9773b2f6e52662335b2
     Pseudo is Projector augmented-wave, Zval =  1.0
     Generated using "atomic" code by A. Dal Corso  v.5.0.99 svn rev. 10869
     Shape of augmentation charge: PSQ
     Using radial grid of  929 points,  2 beta functions with:
                l(1) =   0
                l(2) =   0
     Q(r) pseudized with 0 coefficients

     atomic species   valence    mass     pseudopotential
        Fe            16.00    55.85000     Fe( 1.00)
        S              6.00    32.00000      S( 1.00)
        H              1.00     1.00000      H( 1.00)

     Starting magnetic structure
     atomic species   magnetization
        Fe           0.600
        S            0.000
        H            0.000

     Simplified LDA+U calculation (l_max = 2) with parameters (eV):
     atomic species    L          U    alpha       J0     beta
        Fe             2     0.0000   0.0000   0.0000   0.0000

     No symmetry found

                                    s                        frac. trans.

      isym =  1     identity

 cryst.   s( 1) = (     1          0          0      )
                  (     0          1          0      )
                  (     0          0          1      )

 cart.    s( 1) = (  1.0000000  0.0000000  0.0000000 )
                  (  0.0000000  1.0000000  0.0000000 )
                  (  0.0000000  0.0000000  1.0000000 )

     point group C_1 (1)
     there are  1 classes
     the character table:

       E
A      1.00

     the symmetry operations in each class:
     E        1

   Cartesian axes

     site n.     atom                  positions (alat units)
         1           Fe  tau(   1) = (   0.0000000   0.0000000  -4.0057584  )
         2           Fe  tau(   2) = (  -0.8176697   2.3127291  -4.0057584  )
         3           Fe  tau(   3) = (   2.4530190   0.0000000  -4.0057584  )
         4           Fe  tau(   4) = (  -3.2706887   2.3127291  -4.0057584  )
         5           Fe  tau(   5) = (   0.8176697   1.1563595  -2.0028892  )
         6           Fe  tau(   6) = (  -0.8176697  -1.1563595  -2.0028892  )
         7           Fe  tau(   7) = (   1.6353494  -1.1563595  -2.0028892  )
         8           Fe  tau(   8) = (  -1.6353494   1.1563595  -2.0028892  )
         9           Fe  tau(   9) = (   0.0000000   0.0000000   0.0000000  )
        10           Fe  tau(  10) = (  -0.8176697   2.3127291   0.0000000  )
        11           Fe  tau(  11) = (   2.4530190   0.0000000   0.0000000  )
        12           Fe  tau(  12) = (  -3.2706887   2.3127291   0.0000000  )
        13           Fe  tau(  13) = (   0.8141251   1.1501541   1.9826528  )
        14           Fe  tau(  14) = (  -0.8105399  -1.1478648   1.9855636  )
        15           Fe  tau(  15) = (   1.6280138  -1.1634090   1.9856060  )
        16           Fe  tau(  16) = (  -1.6321710   1.1640763   1.9829526  )
        17           Fe  tau(  17) = (  -0.0052822  -0.0286586   4.0123628  )
        18           Fe  tau(  18) = (  -0.8129176   2.3440129   4.0129988  )
        19           Fe  tau(  19) = (   2.4343515  -0.0102004   3.9395980  )
        20           Fe  tau(  20) = (  -3.2524297   2.3256276   3.9390657  )
        21           S   tau(  21) = (  -0.4040031   1.1586382   5.8659067  )
        22           H   tau(  22) = (   0.5427046   1.4494238   6.8212108  )
        23           H   tau(  23) = (  -1.3453864   0.8677989   6.8264276  )

   Crystallographic axes

     site n.     atom                  positions (cryst. coord.)
         1           Fe  tau(   1) = (  0.0000000  0.0000000 -0.1954028  )
         2           Fe  tau(   2) = (  0.0000007  0.4999995 -0.1954028  )
         3           Fe  tau(   3) = (  0.4999994  0.0000000 -0.1954028  )
         4           Fe  tau(   4) = ( -0.4999986  0.4999995 -0.1954028  )
         5           Fe  tau(   5) = (  0.2499987  0.2499987 -0.0977019  )
         6           Fe  tau(   6) = ( -0.2499987 -0.2499987 -0.0977019  )
         7           Fe  tau(   7) = (  0.2500007 -0.2499987 -0.0977019  )
         8           Fe  tau(   8) = ( -0.2500007  0.2499987 -0.0977019  )
         9           Fe  tau(   9) = (  0.0000000  0.0000000  0.0000000  )
        10           Fe  tau(  10) = (  0.0000007  0.4999995  0.0000000  )
        11           Fe  tau(  11) = (  0.4999994  0.0000000  0.0000000  )
        12           Fe  tau(  12) = ( -0.4999986  0.4999995  0.0000000  )
        13           Fe  tau(  13) = (  0.2488290  0.2486571  0.0967148  )
        14           Fe  tau(  14) = ( -0.2479332 -0.2481622  0.0968568  )
        15           Fe  tau(  15) = (  0.2479975 -0.2515227  0.0968588  )
        16           Fe  tau(  16) = ( -0.2487967  0.2516670  0.0967294  )
        17           Fe  tau(  17) = ( -0.0031420 -0.0061958  0.1957250  )
        18           Fe  tau(  18) = (  0.0032238  0.5067629  0.1957560  )
        19           Fe  tau(  19) = (  0.4954593 -0.0022053  0.1921755  )
        20           Fe  tau(  20) = ( -0.4953474  0.5027881  0.1921495  )
        21           S   tau(  21) = (  0.0011491  0.2504913  0.2861418  )
        22           H   tau(  22) = (  0.2150721  0.3133576  0.3327420  )
        23           H   tau(  23) = ( -0.2116926  0.1876134  0.3329965  )

     number of k points=    20  Marzari-Vanderbilt smearing, width (Ry)=  0.0400
                       cart. coord. in units 2pi/alat
        k(    1) = (   0.0000000   0.0000000   0.0000000), wk =   0.0625000
        k(    2) = (   0.0000000   0.0540486   0.0000000), wk =   0.1250000
        k(    3) = (   0.0000000  -0.1080973   0.0000000), wk =   0.0625000
        k(    4) = (   0.0509576   0.0180162   0.0000000), wk =   0.1250000
        k(    5) = (   0.0509576   0.0720649   0.0000000), wk =   0.1250000
        k(    6) = (   0.0509576  -0.0900811   0.0000000), wk =   0.1250000
        k(    7) = (   0.0509576  -0.0360324   0.0000000), wk =   0.1250000
        k(    8) = (  -0.1019151  -0.0360324   0.0000000), wk =   0.0625000
        k(    9) = (  -0.1019151   0.0180162   0.0000000), wk =   0.1250000
        k(   10) = (  -0.1019151  -0.1441297   0.0000000), wk =   0.0625000
        k(   11) = (   0.0000000   0.0000000   0.0000000), wk =   0.0625000
        k(   12) = (   0.0000000   0.0540486   0.0000000), wk =   0.1250000
        k(   13) = (   0.0000000  -0.1080973   0.0000000), wk =   0.0625000
        k(   14) = (   0.0509576   0.0180162   0.0000000), wk =   0.1250000
        k(   15) = (   0.0509576   0.0720649   0.0000000), wk =   0.1250000
        k(   16) = (   0.0509576  -0.0900811   0.0000000), wk =   0.1250000
        k(   17) = (   0.0509576  -0.0360324   0.0000000), wk =   0.1250000
        k(   18) = (  -0.1019151  -0.0360324   0.0000000), wk =   0.0625000
        k(   19) = (  -0.1019151   0.0180162   0.0000000), wk =   0.1250000
        k(   20) = (  -0.1019151  -0.1441297   0.0000000), wk =   0.0625000

                       cryst. coord.
        k(    1) = (   0.0000000   0.0000000   0.0000000), wk =   0.0625000
        k(    2) = (   0.0000000   0.2500000   0.0000000), wk =   0.1250000
        k(    3) = (   0.0000000  -0.5000000   0.0000000), wk =   0.0625000
        k(    4) = (   0.2500000   0.0000000   0.0000000), wk =   0.1250000
        k(    5) = (   0.2500000   0.2500000   0.0000000), wk =   0.1250000
        k(    6) = (   0.2500000  -0.5000000   0.0000000), wk =   0.1250000
        k(    7) = (   0.2500000  -0.2500000   0.0000000), wk =   0.1250000
        k(    8) = (  -0.5000000  -0.0000000   0.0000000), wk =   0.0625000
[...]
     1.0593   1.0671   1.0674   1.0726   1.0832   1.0828   1.0785   1.0775
     1.0692   1.0308   0.9167   0.8993   0.8932   0.8694   0.8187   0.7983
     0.6356   0.5743   0.5301   0.5198   0.4836   0.4687   0.3821   0.3699
     0.3513   0.3300   0.2074   0.1072   0.0440   0.0421   0.0347   0.0334
     0.0178   0.0114   0.0092   0.0091   0.0077   0.0073   0.0045   0.0031
     0.0018   0.0017   0.0009   0.0007   0.0003   0.0001   0.0001   0.0001
     0.0000   0.0000   0.0000   0.0000   0.0000   0.0000   0.0000   0.0000
     0.0000   0.0000   0.0000   0.0000   0.0000   0.0000   0.0000   0.0000
     0.0000   0.0000   0.0000   0.0000   0.0000   0.0000   0.0000   0.0000
     0.0000   0.0000   0.0000   0.0000   0.0000

     the Fermi energy is     7.5996 ev

!    total energy              =   -6653.55848616 Ry
     Harris-Foulkes estimate   =   -6653.55848616 Ry
     estimated scf accuracy    <          1.0E-08 Ry

     total all-electron energy =    -51711.590325 Ry

     The total energy is the sum of the following terms:

     one-electron contribution =  -29344.40170639 Ry
     hartree contribution      =   14762.60329943 Ry
     xc contribution           =    -704.85770931 Ry
     ewald contribution        =   10200.12756365 Ry
     Hubbard energy            =       0.00000000 Ry
     one-center paw contrib.   =   -1567.16438860 Ry
     smearing contrib. (-TS)   =       0.13445505 Ry

     total magnetization       =    45.68 Bohr mag/cell
     absolute magnetization    =    47.97 Bohr mag/cell

     convergence has been achieved in  27 iterations

     Forces acting on atoms (Ry/au):

     negative rho (up, down):  0.877E-05 0.449E-03
     atom    1 type  1   force =     0.00005035   -0.00000820    0.00185372
     atom    2 type  1   force =    -0.00004888    0.00000691    0.00186028
     atom    3 type  1   force =     0.00002466   -0.00001676    0.00149986
     atom    4 type  1   force =    -0.00002062    0.00001748    0.00149479
     atom    5 type  1   force =    -0.00014735   -0.00049421    0.00155468
     atom    6 type  1   force =    -0.00009001    0.00012935    0.00226688
     atom    7 type  1   force =     0.00009210   -0.00014708    0.00226930
     atom    8 type  1   force =     0.00015170    0.00048747    0.00157482
     atom    9 type  1   force =     0.00016742   -0.00024196   -0.00328162
     atom   10 type  1   force =    -0.00018674    0.00035413   -0.00326854
     atom   11 type  1   force =     0.00071100    0.00004404   -0.00398638
     atom   12 type  1   force =    -0.00069625    0.00008380   -0.00400043
     atom   13 type  1   force =    -0.00002885   -0.00007596    0.00007938
     atom   14 type  1   force =     0.00005939   -0.00001088    0.00003361
     atom   15 type  1   force =    -0.00008379   -0.00001913   -0.00000223
     atom   16 type  1   force =     0.00005216    0.00001877    0.00000567
     atom   17 type  1   force =     0.00005071   -0.00003633    0.00007821
     atom   18 type  1   force =    -0.00001065   -0.00001066    0.00002325
     atom   19 type  1   force =     0.00003472   -0.00001594   -0.00000611
     atom   20 type  1   force =     0.00000272    0.00000396   -0.00001438
     atom   21 type  2   force =    -0.00001140   -0.00006788   -0.00005176
     atom   22 type  3   force =    -0.00004224   -0.00003456   -0.00000899
     atom   23 type  3   force =    -0.00003016    0.00003366    0.00002599
     The non-local contrib.  to forces
     atom    1 type  1   force =     0.00028625   -0.00035743   -0.19261382
     atom    2 type  1   force =    -0.00029114    0.00035273   -0.19261174
     atom    3 type  1   force =    -0.00035053    0.00042850   -0.19060924
     atom    4 type  1   force =     0.00035040   -0.00043187   -0.19061135
     atom    5 type  1   force =    -0.00114910    0.00064988   -0.02781487
     atom    6 type  1   force =    -0.00037660    0.00055232   -0.02694276
     atom    7 type  1   force =     0.00036785   -0.00057400   -0.02697340
     atom    8 type  1   force =     0.00114463   -0.00067820   -0.02783382
     atom    9 type  1   force =     0.00146130    0.00078551    0.00572182
     atom   10 type  1   force =    -0.00158321   -0.00079497    0.00567365
     atom   11 type  1   force =    -0.00159516    0.00222806    0.00114485
     atom   12 type  1   force =     0.00145508   -0.00227427    0.00119595
     atom   13 type  1   force =     0.00728323    0.01280715    0.01437566
     atom   14 type  1   force =    -0.01068056   -0.01429106    0.01823855
     atom   15 type  1   force =     0.01067653    0.01421322    0.01813253
     atom   16 type  1   force =    -0.00721391   -0.01275408    0.01438696
     atom   17 type  1   force =    -0.04568828    0.16293935    0.28904070
     atom   18 type  1   force =     0.04735378   -0.16235061    0.28931460
     atom   19 type  1   force =     0.05124410    0.04956954    0.21947822
     atom   20 type  1   force =    -0.05226928   -0.04997224    0.21946007
     atom   21 type  2   force =     0.00107879    0.00002795    0.23375724
     atom   22 type  3   force =    -0.03839883   -0.01190031   -0.03762711
     atom   23 type  3   force =     0.03818109    0.01190344   -0.03783672
     The ionic contribution  to forces
     atom    1 type  1   force =    -0.00014606   -0.00015460 -323.79243745
     atom    2 type  1   force =     0.00012608    0.00014885 -323.79208121
     atom    3 type  1   force =     0.00020175   -0.00031949 -323.79104135
     atom    4 type  1   force =    -0.00019048    0.00032482 -323.79070141
     atom    5 type  1   force =     0.00838916    0.00505231 -167.35263828
     atom    6 type  1   force =    -0.01123862   -0.00337946 -167.35070181
     atom    7 type  1   force =     0.01124603    0.00205014 -167.35074485
     atom    8 type  1   force =    -0.00837959   -0.00377881 -167.35217540
     atom    9 type  1   force =    -0.02742843    0.02282244   -8.83537426
     atom   10 type  1   force =     0.02664126   -0.01980164   -8.83294994
     atom   11 type  1   force =     0.02062179   -0.03811979   -8.51165483
     atom   12 type  1   force =    -0.01509798    0.04437862   -8.51512832
     atom   13 type  1   force =    -0.26161376   -0.00232233  151.61746976
     atom   14 type  1   force =    -0.26897228    0.23510908  150.87296144
     atom   15 type  1   force =     0.26779554   -0.23437406  150.88530969
     atom   16 type  1   force =     0.26237650   -0.00016132  151.63913392
     atom   17 type  1   force =     0.40866967   -1.12465737  308.06157300
     atom   18 type  1   force =    -0.43668220    1.11445575  308.09864990
     atom   19 type  1   force =    -0.05463406    0.30662022  309.19680736
     atom   20 type  1   force =     0.06800963   -0.30492302  309.15566982
     atom   21 type  2   force =     0.00438929    0.00129065  123.86695657
     atom   22 type  3   force =     1.19437372    0.38567459   17.94442893
     atom   23 type  3   force =    -1.18845698   -0.38593557   17.92866871
     The local contribution  to forces
     atom    1 type  1   force =    -0.00008090    0.00050773  323.99551446
     atom    2 type  1   force =     0.00010668   -0.00049777  323.99517494
     atom    3 type  1   force =     0.00014537   -0.00013075  323.99170224
     atom    4 type  1   force =    -0.00015532    0.00012975  323.99134331
     atom    5 type  1   force =    -0.00742454   -0.00628241  167.38335883
     atom    6 type  1   force =     0.01154191    0.00292674  167.38132843
     atom    7 type  1   force =    -0.01153754   -0.00158599  167.38139710
     atom    8 type  1   force =     0.00742126    0.00502366  167.38292181
     atom    9 type  1   force =     0.02621624   -0.02380503    8.82648197
     atom   10 type  1   force =    -0.02533075    0.02089781    8.82410526
     atom   11 type  1   force =    -0.01834621    0.03585131    8.50664566
     atom   12 type  1   force =     0.01297453   -0.04194739    8.51007071
     atom   13 type  1   force =     0.25438052   -0.01032249 -151.63369893
     atom   14 type  1   force =     0.27988572   -0.22106991 -150.89192554
     atom   15 type  1   force =    -0.27872255    0.22038762 -150.90420407
     atom   16 type  1   force =    -0.25518959    0.01269077 -151.65542774
     atom   17 type  1   force =    -0.36214167    0.96061193 -308.35367253
     atom   18 type  1   force =     0.38854336   -0.95104775 -308.39108780
     atom   19 type  1   force =     0.00298441   -0.35614525 -309.42353284
     atom   20 type  1   force =    -0.01529390    0.35483403 -309.38236705
     atom   21 type  2   force =    -0.00543447   -0.00138565 -124.09210581
     atom   22 type  3   force =    -1.15601506   -0.37380860  -17.90680727
     atom   23 type  3   force =     1.15024361    0.37406510  -17.89080246
     The core correction contribution to forces
     atom    1 type  1   force =    -0.00001195   -0.00000145   -0.00871702
     atom    2 type  1   force =     0.00001240    0.00000040   -0.00871821
     atom    3 type  1   force =     0.00002947    0.00000333   -0.00864483
     atom    4 type  1   force =    -0.00002727   -0.00000394   -0.00864074
     atom    5 type  1   force =     0.00003599    0.00008369   -0.00159967
     atom    6 type  1   force =    -0.00001590    0.00003300   -0.00166486
     atom    7 type  1   force =     0.00001505   -0.00003527   -0.00166765
     atom    8 type  1   force =    -0.00003412   -0.00008343   -0.00159796
     atom    9 type  1   force =    -0.00008329   -0.00004445   -0.00011802
     atom   10 type  1   force =     0.00008754    0.00005236   -0.00011409
     atom   11 type  1   force =     0.00003252    0.00008446   -0.00013382
     atom   12 type  1   force =    -0.00003045   -0.00007415   -0.00014019
     atom   13 type  1   force =    -0.00005787   -0.00024463    0.00217125
     atom   14 type  1   force =    -0.00017821    0.00023553    0.00101280
     atom   15 type  1   force =     0.00017229   -0.00023387    0.00102415
     atom   16 type  1   force =     0.00005710    0.00024178    0.00216223
     atom   17 type  1   force =    -0.00077640    0.00105031    0.00331149
     atom   18 type  1   force =     0.00076298   -0.00104838    0.00331494
     atom   19 type  1   force =     0.00040919   -0.00008248    0.00732275
     atom   20 type  1   force =    -0.00041169    0.00008765    0.00730712
     atom   21 type  2   force =    -0.00004435   -0.00000271   -0.00862617
     atom   22 type  3   force =     0.00000000    0.00000000    0.00000000
     atom   23 type  3   force =     0.00000000    0.00000000    0.00000000
     The Hubbard contrib.    to forces
     atom    1 type  1   force =     0.00000000    0.00000000   -0.00000000
     atom    2 type  1   force =    -0.00000000   -0.00000000   -0.00000000
     atom    3 type  1   force =     0.00000000   -0.00000000   -0.00000000
     atom    4 type  1   force =    -0.00000000    0.00000000   -0.00000000
     atom    5 type  1   force =    -0.00000000   -0.00000000    0.00000000
     atom    6 type  1   force =     0.00000000    0.00000000    0.00000000
     atom    7 type  1   force =    -0.00000000   -0.00000000    0.00000000
     atom    8 type  1   force =     0.00000000    0.00000000    0.00000000
     atom    9 type  1   force =    -0.00000000    0.00000000    0.00000000
     atom   10 type  1   force =    -0.00000000   -0.00000000    0.00000000
     atom   11 type  1   force =    -0.00000000   -0.00000000    0.00000000
     atom   12 type  1   force =     0.00000000    0.00000000    0.00000000
     atom   13 type  1   force =     0.00000000    0.00000000   -0.00000000
     atom   14 type  1   force =     0.00000000    0.00000000    0.00000000
     atom   15 type  1   force =    -0.00000000   -0.00000000    0.00000000
     atom   16 type  1   force =    -0.00000000   -0.00000000   -0.00000000
     atom   17 type  1   force =     0.00000000    0.00000000    0.00000000
     atom   18 type  1   force =    -0.00000000   -0.00000000    0.00000000
     atom   19 type  1   force =     0.00000000    0.00000000    0.00000000
     atom   20 type  1   force =    -0.00000000   -0.00000000    0.00000000
     atom   21 type  2   force =     0.00000000    0.00000000    0.00000000
     atom   22 type  3   force =     0.00000000    0.00000000    0.00000000
     atom   23 type  3   force =    -0.00000000   -0.00000000    0.00000000
     The SCF correction term to forces
     atom    1 type  1   force =     0.00000000    0.00000000    0.00000000
     atom    2 type  1   force =     0.00000000    0.00000000    0.00000000
     atom    3 type  1   force =     0.00000000    0.00000000    0.00000000
     atom    4 type  1   force =     0.00000000    0.00000000    0.00000000
     atom    5 type  1   force =     0.00000000    0.00000000    0.00000000
     atom    6 type  1   force =     0.00000000    0.00000000    0.00000000
     atom    7 type  1   force =     0.00000000    0.00000000    0.00000000
     atom    8 type  1   force =     0.00000000    0.00000000    0.00000000
     atom    9 type  1   force =     0.00000000    0.00000000    0.00000000
     atom   10 type  1   force =     0.00000000    0.00000000    0.00000000
     atom   11 type  1   force =     0.00000000    0.00000000    0.00000000
     atom   12 type  1   force =     0.00000000    0.00000000    0.00000000
     atom   13 type  1   force =    -0.00002102    0.00000616   -0.00023642
     atom   14 type  1   force =     0.00000467    0.00000531   -0.00025171
     atom   15 type  1   force =    -0.00000566   -0.00001221   -0.00026259
     atom   16 type  1   force =     0.00002201    0.00000145   -0.00024776
     atom   17 type  1   force =    -0.00001265    0.00001928   -0.00017253
     atom   18 type  1   force =     0.00001139   -0.00001984   -0.00016646
     atom   19 type  1   force =     0.00003102    0.00002186   -0.00007965
     atom   20 type  1   force =    -0.00003210   -0.00002263   -0.00008242
     atom   21 type  2   force =    -0.00000070    0.00000171   -0.00003166
     atom   22 type  3   force =    -0.00000212   -0.00000041   -0.00000161
     atom   23 type  3   force =     0.00000207    0.00000053   -0.00000160

     Total force =     0.000232     Total SCF correction =     0.000571
     SCF correction compared to forces is large: reduce conv_thr to get better values

     entering subroutine stress ...

     negative rho (up, down):  0.877E-05 0.449E-03
          total   stress  (Ry/bohr**3)                   (kbar)     P=  -10.11
  -0.00007468  -0.00003763  -0.00000017        -10.99     -5.54     -0.03
  -0.00003763  -0.00010362  -0.00000047         -5.54    -15.24     -0.07
  -0.00000017  -0.00000047  -0.00002778         -0.03     -0.07     -4.09

     kinetic stress (kbar)  40174.55    -12.39     -0.05
                              -12.39  40205.13     -0.14
                               -0.05     -0.14  39979.49

     local   stress (kbar)**********    930.39      0.27
                              930.39**********      4.63
                                0.27      4.631303234.53

     nonloc. stress (kbar) -30889.05     10.65      0.06
                               10.65 -30874.12      0.13
                                0.06      0.13 -30732.85

     hartree stress (kbar) 650158.78   -348.75     -0.23
                             -348.75 650043.25     -1.76
                               -0.23     -1.76-608446.10

     exc-cor stress (kbar)  -1246.87     -0.48      0.00
                               -0.48  -1247.66     -0.00
                                0.00     -0.00  -1254.15

     corecor stress (kbar)  -8297.00      0.06     -0.00
                                0.06  -8297.88     -0.00
                               -0.00     -0.00  -8296.38

     ewald   stress (kbar) 586342.10   -585.01     -0.07
                             -585.01 586110.92     -2.92
                               -0.07     -2.92-694488.63

     hubbard stress (kbar)     -0.00      0.00      0.00
                                0.00     -0.00      0.00
                                0.00      0.00     -0.00

     london  stress (kbar)      0.00      0.00      0.00
                                0.00      0.00      0.00
                                0.00      0.00      0.00

     dft-nl  stress (kbar)      0.00      0.00      0.00
                                0.00      0.00      0.00
                                0.00      0.00      0.00

     Writing output data file Fe_110_2x2_H2S_SB.save

     General routines

     Parallel routines
     Hubbard U routines

     PAW routines

   This run was terminated on:   5:27:41  12Dec2015

   JOB DONE.
Application 19354453 resources: utime ~107040s, stime ~3245s, Rss ~517872, inblocks ~4790507837, outblocks ~761739120