     Program PWSCF v.5.0.2 (svn rev. 9656) starts on  3Aug2015 at 18:14: 6

     Current dimensions of program PWSCF are:
     Max number of different atomic species (ntypx) = 10
     Max number of k-points (npk) =  40000
     Max angular momentum in pseudopotentials (lmaxx) =  3
     Reading input from Fe_100_2x2_HO_FH_O_SB_0.25ML_scf.in
Warning: card  &IONS ignored
Warning: card  / ignored
Warning: card  &CELL ignored
Warning: card    PRESS=0.0 ignored
Warning: card    PRESS_CONV_THR=0.1 ignored
Warning: card  / ignored

     IMPORTANT: XC functional enforced from input :
     Exchange-correlation      = PBE ( 1 4 3 4 0)
     EXX-fraction              =        0.00
     Any further DFT definition will be discarded
     Please, verify this is what you really want

               file Fe.pbe-spn-kjpaw_psl.0.2.1.UPF: wavefunction(s)  3D renormalized
               file O.pbe-n-kjpaw_psl.0.1.UPF: wavefunction(s)  2P renormalized
               file H.pbe-kjpaw_psl.0.1.upf: wavefunction(s)  1S renormalized

   Task Groups are in USE
   groups and procs/group :     2    6

     bravais-lattice index     =            0
     lattice parameter (alat)  =       1.8897  a.u.
     unit-cell volume          =    3898.2644 (a.u.)^3
     number of atoms/cell      =           23
     number of atomic types    =            3
     number of electrons       =       328.00
     number of Kohn-Sham states=          202
     kinetic-energy cutoff     =      95.0000  Ry
     charge density cutoff     =     800.0000  Ry
     convergence threshold     =      1.0E-08
     mixing beta               =       0.5000
     number of iterations used =            8  local-TF  mixing
     Exchange-correlation      = PBE ( 1 4 3 4 0)
     EXX-fraction              =        0.00

     celldm(1)=   1.889727  celldm(2)=   0.000000  celldm(3)=   0.000000
     celldm(4)=   0.000000  celldm(5)=   0.000000  celldm(6)=   0.000000

     crystal axes: (cart. coord. in units of alat)
               a(1) = (   5.665012   0.000000   0.000000 )
               a(2) = (   0.000000   5.665012   0.000000 )
               a(3) = (   0.000000   0.000000  18.000000 )

     reciprocal axes: (cart. coord. in units 2 pi/alat)
               b(1) = (  0.176522 -0.000000  0.000000 )
               b(2) = (  0.000000  0.176522  0.000000 )
               b(3) = (  0.000000  0.000000  0.055556 )

     PseudoPot. # 1 for Fe read from file:
     /work/e05/e05/ablar/QE_PSEUDO/Fe.pbe-spn-kjpaw_psl.0.2.1.UPF
     MD5 check sum: a0a08122d52b112de96d1da1d7dd020f
     Pseudo is Projector augmented-wave + core cor, Zval = 16.0
     Generated using "atomic" code by A. Dal Corso  v.5.0.2 svn rev. 9415
     Shape of augmentation charge: PSQ
     Using radial grid of 1191 points,  6 beta functions with:
                l(1) =   0
                l(2) =   0
                l(3) =   1
                l(4) =   1
                l(5) =   2
                l(6) =   2
     Q(r) pseudized with 0 coefficients

     PseudoPot. # 2 for  O read from file:
     /work/e05/e05/ablar/QE_PSEUDO/O.pbe-n-kjpaw_psl.0.1.UPF
     MD5 check sum: 1d826bf4880e2aee2c3af49d0719521d
     Pseudo is Projector augmented-wave + core cor, Zval =  6.0
     Generated using "atomic" code by A. Dal Corso  v.5.0.2 svn rev. 9415
     Shape of augmentation charge: BESSEL
     Using radial grid of 1095 points,  4 beta functions with:
                l(1) =   0
                l(2) =   0
                l(3) =   1
                l(4) =   1
     Q(r) pseudized with 0 coefficients

     PseudoPot. # 3 for  H read from file:
     /work/e05/e05/ablar/QE_PSEUDO/H.pbe-kjpaw_psl.0.1.upf
     MD5 check sum: 94e484f906d9e9773b2f6e52662335b2
     Pseudo is Projector augmented-wave, Zval =  1.0
     Generated using "atomic" code by A. Dal Corso  v.5.0.99 svn rev. 10869
     Shape of augmentation charge: PSQ
     Using radial grid of  929 points,  2 beta functions with:
                l(1) =   0
                l(2) =   0
     Q(r) pseudized with 0 coefficients

     atomic species   valence    mass     pseudopotential
        Fe            16.00    55.85000     Fe( 1.00)
        O              6.00    16.00000      O( 1.00)
        H              1.00     1.00000      H( 1.00)

     Starting magnetic structure
     atomic species   magnetization
        Fe           0.600
        O            0.000
        H            0.000

     Simplified LDA+U calculation (l_max = 2) with parameters (eV):
     atomic species    L          U    alpha       J0     beta
        Fe             2     0.0000   0.0000   0.0000   0.0000

     No symmetry found

                                    s                        frac. trans.

      isym =  1     identity

 cryst.   s( 1) = (     1          0          0      )
                  (     0          1          0      )
                  (     0          0          1      )

 cart.    s( 1) = (  1.0000000  0.0000000  0.0000000 )
                  (  0.0000000  1.0000000  0.0000000 )
                  (  0.0000000  0.0000000  1.0000000 )

     point group C_1 (1)
     there are  1 classes
     the character table:

       E
A      1.00

     the symmetry operations in each class:
     E        1

   Cartesian axes

     site n.     atom                  positions (alat units)
         1           Fe  tau(   1) = (   0.0000000   0.0000000  -2.8324989  )
         2           Fe  tau(   2) = (   0.0000000   2.8325089  -2.8324989  )
         3           Fe  tau(   3) = (   2.8325089   0.0000000  -2.8324989  )
         4           Fe  tau(   4) = (   2.8324989   2.8325089  -2.8324989  )
         5           Fe  tau(   5) = (   1.4162494   1.4162494  -1.4162594  )
         6           Fe  tau(   6) = (   1.4162494  -1.4162494  -1.4162594  )
         7           Fe  tau(   7) = (  -1.4162494   1.4162494  -1.4162594  )
         8           Fe  tau(   8) = (  -1.4162494  -1.4162494  -1.4162594  )
         9           Fe  tau(   9) = (   0.0000000   0.0000000   0.0000000  )
        10           Fe  tau(  10) = (   0.0000000   2.8324989   0.0000000  )
        11           Fe  tau(  11) = (   2.8324989   0.0000000   0.0000000  )
        12           Fe  tau(  12) = (   2.8324989   2.8324989   0.0000000  )
        13           Fe  tau(  13) = (   1.4163571   1.4031191   1.3831661  )
        14           Fe  tau(  14) = (   1.4164319  -1.4025953   1.3832728  )
        15           Fe  tau(  15) = (  -1.4160267   1.4003327   1.4466428  )
        16           Fe  tau(  16) = (  -1.4159925  -1.4018894   1.4531748  )
        17           Fe  tau(  17) = (   0.0418177   0.0114402   2.9289505  )
        18           Fe  tau(  18) = (   0.0588943   2.8260425   2.8039321  )
        19           Fe  tau(  19) = (   2.7909006   0.0119231   2.9288138  )
        20           Fe  tau(  20) = (   2.7747251   2.8263038   2.8038596  )
        21           O   tau(  21) = (   1.4164409  -0.0641296   4.3586209  )
        22           H   tau(  22) = (   1.4169740   2.8067212   3.8588038  )
        23           H   tau(  23) = (   1.4165076  -0.9534879   4.7664620  )

   Crystallographic axes

     site n.     atom                  positions (cryst. coord.)
         1           Fe  tau(   1) = (  0.0000000  0.0000000 -0.1573610  )
         2           Fe  tau(   2) = ( -0.0000000  0.5000005 -0.1573610  )
         3           Fe  tau(   3) = (  0.5000005  0.0000000 -0.1573610  )
         4           Fe  tau(   4) = (  0.4999987  0.5000005 -0.1573610  )
         5           Fe  tau(   5) = (  0.2499994  0.2499994 -0.0786811  )
         6           Fe  tau(   6) = (  0.2499994 -0.2499994 -0.0786811  )
         7           Fe  tau(   7) = ( -0.2499994  0.2499994 -0.0786811  )
         8           Fe  tau(   8) = ( -0.2499994 -0.2499994 -0.0786811  )
         9           Fe  tau(   9) = (  0.0000000  0.0000000  0.0000000  )
        10           Fe  tau(  10) = ( -0.0000000  0.4999987  0.0000000  )
        11           Fe  tau(  11) = (  0.4999987  0.0000000  0.0000000  )
        12           Fe  tau(  12) = (  0.4999987  0.4999987  0.0000000  )
        13           Fe  tau(  13) = (  0.2500184  0.2476816  0.0768426  )
        14           Fe  tau(  14) = (  0.2500316 -0.2475891  0.0768485  )
        15           Fe  tau(  15) = ( -0.2499600  0.2471897  0.0803690  )
        16           Fe  tau(  16) = ( -0.2499540 -0.2474645  0.0807319  )
        17           Fe  tau(  17) = (  0.0073817  0.0020194  0.1627195  )
        18           Fe  tau(  18) = (  0.0103961  0.4988591  0.1557740  )
        19           Fe  tau(  19) = (  0.4926557  0.0021047  0.1627119  )
        20           Fe  tau(  20) = (  0.4898004  0.4989052  0.1557700  )
        21           O   tau(  21) = (  0.2500332 -0.0113203  0.2421456  )
        22           H   tau(  22) = (  0.2501273  0.4954484  0.2143780  )
        23           H   tau(  23) = (  0.2500449 -0.1683117  0.2648034  )

     number of k points=    20  Marzari-Vanderbilt smearing, width (Ry)=  0.0400
                       cart. coord. in units 2pi/alat
        k(    1) = (   0.0000000   0.0000000   0.0000000), wk =   0.0625000
        k(    2) = (   0.0000000   0.0441305   0.0000000), wk =   0.1250000
        k(    3) = (   0.0000000  -0.0882611   0.0000000), wk =   0.0625000
        k(    4) = (   0.0441305   0.0441305   0.0000000), wk =   0.1250000
        k(    5) = (   0.0441305  -0.0882611   0.0000000), wk =   0.1250000
        k(    6) = (  -0.0882611  -0.0882611   0.0000000), wk =   0.0625000
        k(    7) = (   0.0441305  -0.0000000   0.0000000), wk =   0.1250000
        k(    8) = (  -0.0882611   0.0000000   0.0000000), wk =   0.0625000
        k(    9) = (  -0.0441305   0.0441305   0.0000000), wk =   0.1250000
        k(   10) = (  -0.0882611   0.0441305   0.0000000), wk =   0.1250000
        k(   11) = (   0.0000000   0.0000000   0.0000000), wk =   0.0625000
        k(   12) = (   0.0000000   0.0441305   0.0000000), wk =   0.1250000
        k(   13) = (   0.0000000  -0.0882611   0.0000000), wk =   0.0625000
        k(   14) = (   0.0441305   0.0441305   0.0000000), wk =   0.1250000
        k(   15) = (   0.0441305  -0.0882611   0.0000000), wk =   0.1250000
        k(   16) = (  -0.0882611  -0.0882611   0.0000000), wk =   0.0625000
        k(   17) = (   0.0441305  -0.0000000   0.0000000), wk =   0.1250000
        k(   18) = (  -0.0882611   0.0000000   0.0000000), wk =   0.0625000
        k(   19) = (  -0.0441305   0.0441305   0.0000000), wk =   0.1250000
        k(   20) = (  -0.0882611   0.0441305   0.0000000), wk =   0.1250000

                       cryst. coord.
        k(    1) = (   0.0000000   0.0000000   0.0000000), wk =   0.0625000
        k(    2) = (   0.0000000   0.2500000   0.0000000), wk =   0.1250000
        k(    3) = (   0.0000000  -0.5000000   0.0000000), wk =   0.0625000
        k(    4) = (   0.2500000   0.2500000   0.0000000), wk =   0.1250000
        k(    5) = (   0.2500000  -0.5000000   0.0000000), wk =   0.1250000
        k(    6) = (  -0.5000000  -0.5000000   0.0000000), wk =   0.0625000
        k(    7) = (   0.2500000   0.0000000   0.0000000), wk =   0.1250000
        k(    8) = (  -0.5000000  -0.0000000   0.0000000), wk =   0.0625000
[...]
     1.0677   1.0744   1.0757   1.0806   1.0817   1.0600   0.9112   0.7989
     0.6928   0.3003   0.2883   0.2162   0.1342   0.1289   0.1208   0.0866
     0.0664   0.0515   0.0336   0.0329   0.0316   0.0114   0.0112   0.0068
     0.0014   0.0007   0.0004   0.0002   0.0001   0.0001   0.0001   0.0000
     0.0000   0.0000   0.0000   0.0000   0.0000   0.0000   0.0000   0.0000
     0.0000   0.0000   0.0000   0.0000   0.0000   0.0000   0.0000   0.0000
     0.0000   0.0000   0.0000   0.0000   0.0000   0.0000   0.0000   0.0000
     0.0000   0.0000   0.0000   0.0000   0.0000   0.0000   0.0000   0.0000
     0.0000   0.0000   0.0000   0.0000   0.0000   0.0000   0.0000   0.0000
     0.0000   0.0000

     the Fermi energy is     5.1003 ev

!    total energy              =   -6628.78764125 Ry
     Harris-Foulkes estimate   =   -6628.78764125 Ry
     estimated scf accuracy    <          5.6E-09 Ry

     total all-electron energy =    -51063.565235 Ry

     The total energy is the sum of the following terms:

     one-electron contribution =  -25877.92771087 Ry
     hartree contribution      =   12999.05333327 Ry
     xc contribution           =    -705.07416298 Ry
     ewald contribution        =    8487.56297526 Ry
     Hubbard energy            =       0.00000000 Ry
     one-center paw contrib.   =   -1532.50172606 Ry
     smearing contrib. (-TS)   =       0.09965013 Ry

     total magnetization       =    51.19 Bohr mag/cell
     absolute magnetization    =    53.55 Bohr mag/cell

     convergence has been achieved in  30 iterations

     Forces acting on atoms (Ry/au):

     negative rho (up, down):  0.538E-04 0.131E-02
     atom    1 type  1   force =     0.00000865    0.00009010    0.00334125
     atom    2 type  1   force =    -0.00003732   -0.00010195    0.00335144
     atom    3 type  1   force =    -0.00000934    0.00008955    0.00334346
     atom    4 type  1   force =     0.00003525   -0.00010213    0.00335190
     atom    5 type  1   force =     0.00000080   -0.00052209   -0.00926894
     atom    6 type  1   force =     0.00000332    0.00062444   -0.00942542
     atom    7 type  1   force =    -0.00000300    0.00022774   -0.00418278
     atom    8 type  1   force =    -0.00000260   -0.00030233   -0.00382657
     atom    9 type  1   force =    -0.00596166   -0.00005981    0.00396494
     atom   10 type  1   force =    -0.00814994    0.00002348    0.00285014
     atom   11 type  1   force =     0.00601379   -0.00004484    0.00396429
     atom   12 type  1   force =     0.00821627    0.00003149    0.00285009
     atom   13 type  1   force =     0.00001879    0.00007550   -0.00000400
     atom   14 type  1   force =    -0.00000580   -0.00000203   -0.00010493
     atom   15 type  1   force =    -0.00002737    0.00009558   -0.00003244
     atom   16 type  1   force =    -0.00003850   -0.00001724   -0.00007854
     atom   17 type  1   force =     0.00008778    0.00001235   -0.00001949
     atom   18 type  1   force =     0.00000352    0.00001806   -0.00003524
     atom   19 type  1   force =    -0.00007142   -0.00004631    0.00000411
     atom   20 type  1   force =    -0.00005187   -0.00001743   -0.00005380
     atom   21 type  2   force =    -0.00000909    0.00001572   -0.00004325
     atom   22 type  3   force =    -0.00002981   -0.00004993    0.00004427
     atom   23 type  3   force =     0.00000953   -0.00003792    0.00000951
     The non-local contrib.  to forces
     atom    1 type  1   force =     0.00024426   -0.00006032   -0.39081879
     atom    2 type  1   force =    -0.00245893    0.00031359   -0.39405584
     atom    3 type  1   force =    -0.00025139   -0.00006347   -0.39082174
     atom    4 type  1   force =     0.00244647    0.00031483   -0.39406226
     atom    5 type  1   force =    -0.00000581    0.00098125   -0.03300816
     atom    6 type  1   force =    -0.00000846   -0.00172573   -0.03108131
     atom    7 type  1   force =    -0.00000509   -0.00077922   -0.03770962
     atom    8 type  1   force =    -0.00000236    0.00073413   -0.03689690
     atom    9 type  1   force =     0.01132254   -0.00008734    0.00014832
     atom   10 type  1   force =     0.01359307   -0.00042950   -0.00972323
     atom   11 type  1   force =    -0.01139872   -0.00008303    0.00013303
     atom   12 type  1   force =    -0.01364251   -0.00042097   -0.00973760
     atom   13 type  1   force =     0.00000800    0.01047061    0.05807849
     atom   14 type  1   force =     0.00002836   -0.00668072    0.06973509
     atom   15 type  1   force =    -0.00000622    0.01655375   -0.01632480
     atom   16 type  1   force =    -0.00000598   -0.01267579   -0.01176640
     atom   17 type  1   force =    -0.02342981    0.01073220    0.22673736
     atom   18 type  1   force =    -0.03115377    0.00680532    0.28117315
     atom   19 type  1   force =     0.02335527    0.01080651    0.22668747
     atom   20 type  1   force =     0.03130134    0.00696176    0.28113026
     atom   21 type  2   force =     0.00005206   -1.64092923   -0.14977374
     atom   22 type  3   force =     0.00000400    0.00173311   -0.01814400
     atom   23 type  3   force =    -0.00000711    0.09393792   -0.04452568
     The ionic contribution  to forces
     atom    1 type  1   force =    -0.10672837   -0.00631084 -261.70310722
     atom    2 type  1   force =    -0.10776197    0.00625849 -261.68498336
     atom    3 type  1   force =     0.10673307   -0.00630365 -261.70272847
     atom    4 type  1   force =     0.10785074    0.00625085 -261.68460908
     atom    5 type  1   force =     0.00044783    0.04593069 -142.28376465
     atom    6 type  1   force =     0.00033309   -0.04624880 -142.24497606
     atom    7 type  1   force =    -0.00089418    0.05454056 -141.20612120
     atom    8 type  1   force =    -0.00086743   -0.05305042 -141.11468401
     atom    9 type  1   force =    -1.91827889   -0.13071433   -6.67848764
     atom   10 type  1   force =    -1.99892130    0.12196265   -6.82873159
     atom   11 type  1   force =     1.92329942   -0.13048533   -6.67703715
     atom   12 type  1   force =     2.00288463    0.12122652   -6.82753887
     atom   13 type  1   force =     0.00130875   -0.48426501  122.73684404
     atom   14 type  1   force =     0.00168044    0.48497772  122.99853258
     atom   15 type  1   force =    -0.00135896   -0.02260550  131.35366230
     atom   16 type  1   force =    -0.00413234    0.09132224  132.17214230
     atom   17 type  1   force =   -10.93149253    0.19236356  246.01056232
     atom   18 type  1   force =    -7.08455695    0.17536846  247.45846558
     atom   19 type  1   force =    10.93120941    0.18814460  246.00282911
     atom   20 type  1   force =     7.07828309    0.17640423  247.45262763
     atom   21 type  2   force =     0.00075939    2.58776950  107.39770996
     atom   22 type  3   force =    -0.00020730   -0.10880508   19.11676337
     atom   23 type  3   force =     0.00041035   -3.26373110   17.93663011
     The local contribution  to forces
     atom    1 type  1   force =     0.10650676    0.00647638  262.11032311
     atom    2 type  1   force =     0.11030222   -0.00668471  262.09535519
     atom    3 type  1   force =    -0.10650437    0.00647114  262.10994653
     atom    4 type  1   force =    -0.11037902   -0.00667707  262.09498773
     atom    5 type  1   force =    -0.00044429   -0.04724403  142.30777770
     atom    6 type  1   force =    -0.00032442    0.04849473  142.26692558
     atom    7 type  1   force =     0.00089673   -0.05354199  141.24050373
     atom    8 type  1   force =     0.00086712    0.05204428  141.14860573
     atom    9 type  1   force =     1.90147286    0.13068196    6.68258670
     atom   10 type  1   force =     1.97740659   -0.12155820    6.84158679
     atom   11 type  1   force =    -1.90637057    0.13046297    6.68115093
     atom   12 type  1   force =    -1.98126027   -0.12082285    6.84040579
     atom   13 type  1   force =    -0.00130054    0.47388199 -122.79695574
     atom   14 type  1   force =    -0.00171622   -0.47862260 -123.07076349
     atom   15 type  1   force =     0.00133790    0.00618762 -131.33630399
     atom   16 type  1   force =     0.00410347   -0.07892133 -132.15958687
     atom   17 type  1   force =    10.94968113   -0.20265399 -246.25764202
     atom   18 type  1   force =     7.11904540   -0.18190312 -247.75146173
     atom   19 type  1   force =   -10.94930648   -0.19855865 -246.24983577
     atom   20 type  1   force =    -7.11296398   -0.18313142 -247.74559658
     atom   21 type  2   force =    -0.00082017   -0.96292478 -107.24980674
     atom   22 type  3   force =     0.00017351    0.10702284  -19.09857392
     atom   23 type  3   force =    -0.00039374    3.16975390  -17.89208875
     The core correction contribution to forces
     atom    1 type  1   force =     0.00000214   -0.00000911   -0.01290012
     atom    2 type  1   force =    -0.00010307    0.00000587   -0.01282099
     atom    3 type  1   force =    -0.00000277   -0.00000896   -0.01289839
     atom    4 type  1   force =     0.00010095    0.00000508   -0.01282188
     atom    5 type  1   force =     0.00000146   -0.00019082   -0.00008193
     atom    6 type  1   force =     0.00000159    0.00010707   -0.00010462
     atom    7 type  1   force =     0.00000118    0.00000592   -0.00066753
     atom    8 type  1   force =     0.00000151   -0.00002656   -0.00066584
     atom    9 type  1   force =    -0.00046069    0.00006935   -0.00025471
     atom   10 type  1   force =    -0.00020773    0.00004038   -0.00023711
     atom   11 type  1   force =     0.00046604    0.00007038   -0.00025499
     atom   12 type  1   force =     0.00021362    0.00004030   -0.00023462
     atom   13 type  1   force =     0.00000112    0.00002502    0.00191925
     atom   14 type  1   force =     0.00000002    0.00028940    0.00228152
     atom   15 type  1   force =     0.00000138   -0.00000653   -0.00116169
     atom   16 type  1   force =    -0.00000207    0.00022244   -0.00096865
     atom   17 type  1   force =     0.00535103   -0.00042011    0.02020519
     atom   18 type  1   force =    -0.00332996   -0.00025860    0.01165569
     atom   19 type  1   force =    -0.00535164   -0.00042913    0.02020676
     atom   20 type  1   force =     0.00332662   -0.00025815    0.01165338
     atom   21 type  2   force =    -0.00000048    0.01609845    0.00183228
     atom   22 type  3   force =     0.00000000    0.00000000    0.00000000
     atom   23 type  3   force =     0.00000000    0.00000000    0.00000000
     The Hubbard contrib.    to forces
     atom    1 type  1   force =    -0.00000000    0.00000000   -0.00000000
     atom    2 type  1   force =    -0.00000000   -0.00000000   -0.00000000
     atom    3 type  1   force =     0.00000000    0.00000000   -0.00000000
     atom    4 type  1   force =     0.00000000   -0.00000000   -0.00000000
     atom    5 type  1   force =    -0.00000000    0.00000000   -0.00000000
     atom    6 type  1   force =    -0.00000000    0.00000000   -0.00000000
     atom    7 type  1   force =    -0.00000000   -0.00000000    0.00000000
     atom    8 type  1   force =    -0.00000000    0.00000000    0.00000000
     atom    9 type  1   force =     0.00000000    0.00000000   -0.00000000
     atom   10 type  1   force =     0.00000000   -0.00000000   -0.00000000
     atom   11 type  1   force =    -0.00000000    0.00000000   -0.00000000
     atom   12 type  1   force =    -0.00000000   -0.00000000   -0.00000000
     atom   13 type  1   force =    -0.00000000    0.00000000   -0.00000000
     atom   14 type  1   force =     0.00000000   -0.00000000   -0.00000000
     atom   15 type  1   force =    -0.00000000    0.00000000    0.00000000
     atom   16 type  1   force =     0.00000000   -0.00000000    0.00000000
     atom   17 type  1   force =    -0.00000000    0.00000000    0.00000000
     atom   18 type  1   force =     0.00000000   -0.00000000    0.00000000
     atom   19 type  1   force =     0.00000000    0.00000000    0.00000000
     atom   20 type  1   force =    -0.00000000   -0.00000000    0.00000000
     atom   21 type  2   force =     0.00000000    0.00000000    0.00000000
     atom   22 type  3   force =     0.00000000    0.00000000   -0.00000000
     atom   23 type  3   force =    -0.00000000   -0.00000000    0.00000000
     The SCF correction term to forces
     atom    1 type  1   force =     0.00000000    0.00000000    0.00000000
     atom    2 type  1   force =     0.00000000    0.00000000    0.00000000
     atom    3 type  1   force =     0.00000000    0.00000000    0.00000000
     atom    4 type  1   force =     0.00000000    0.00000000    0.00000000
     atom    5 type  1   force =     0.00000000    0.00000000    0.00000000
     atom    6 type  1   force =     0.00000000    0.00000000    0.00000000
     atom    7 type  1   force =     0.00000000    0.00000000    0.00000000
     atom    8 type  1   force =     0.00000000    0.00000000    0.00000000
     atom    9 type  1   force =     0.00000000    0.00000000    0.00000000
     atom   10 type  1   force =     0.00000000    0.00000000    0.00000000
     atom   11 type  1   force =     0.00000000    0.00000000    0.00000000
     atom   12 type  1   force =     0.00000000    0.00000000    0.00000000
     atom   13 type  1   force =     0.00000142   -0.00003636    0.00011804
     atom   14 type  1   force =     0.00000157    0.00003493    0.00011745
     atom   15 type  1   force =    -0.00000150   -0.00003300    0.00010382
     atom   16 type  1   force =    -0.00000162    0.00003596    0.00010916
     atom   17 type  1   force =    -0.00002207   -0.00000857    0.00012574
     atom   18 type  1   force =    -0.00000121    0.00000676    0.00014017
     atom   19 type  1   force =     0.00002198   -0.00000888    0.00012463
     atom   20 type  1   force =     0.00000103    0.00000691    0.00013959
     atom   21 type  2   force =     0.00000008    0.00000254    0.00000308
     atom   22 type  3   force =    -0.00000006   -0.00000004    0.00000690
     atom   23 type  3   force =    -0.00000000    0.00000211    0.00000192

     Total force =     0.000261     Total SCF correction =     0.000357
     SCF correction compared to forces is large: reduce conv_thr to get better values

     entering subroutine stress ...

     negative rho (up, down):  0.538E-04 0.131E-02
          total   stress  (Ry/bohr**3)                   (kbar)     P=  -15.37
  -0.00018730   0.00000001  -0.00000013        -27.55      0.00     -0.02
   0.00000001  -0.00012806   0.00000002          0.00    -18.84      0.00
  -0.00000013   0.00000002   0.00000188         -0.02      0.00      0.28

     kinetic stress (kbar)  32300.63      0.01     -0.06
                                0.01  32259.50     25.91
                               -0.06     25.91  32206.89

     local   stress (kbar)-860346.95     -0.38      2.09
                               -0.38-859064.13    217.08
                                2.09    217.08 909065.51

     nonloc. stress (kbar) -24749.73     -0.01      0.06
                               -0.01 -24726.96      4.83
                                0.06      4.83 -24680.51

     hartree stress (kbar) 455205.25      0.15     -0.77
                                0.15 454720.60    -69.24
                               -0.77    -69.24-419393.08

     exc-cor stress (kbar)  -1109.98      0.00     -0.00
                                0.00  -1110.36     -0.45
                               -0.00     -0.45  -1115.89

     corecor stress (kbar)  -6598.45     -0.00      0.00
                               -0.00  -6598.36     -0.08
                                0.00     -0.08  -6597.09

     ewald   stress (kbar) 405271.67      0.23     -1.33
                                0.23 404500.87   -178.04
                               -1.33   -178.04-489485.54

     hubbard stress (kbar)     -0.00      0.00      0.00
                                0.00     -0.00     -0.00
                                0.00     -0.00     -0.00

     london  stress (kbar)      0.00      0.00      0.00
                                0.00      0.00      0.00
                                0.00      0.00      0.00

     dft-nl  stress (kbar)      0.00      0.00      0.00
                                0.00      0.00      0.00
                                0.00      0.00      0.00

     Writing output data file Fe_100_2x2_HO_FH_O_SB_0.25ML.save

     General routines

     Parallel routines
     Hubbard U routines

     PAW routines

   This run was terminated on:  19: 4: 2   3Aug2015

   JOB DONE.
Application 16675028 resources: utime ~139045s, stime ~4535s, Rss ~625752, inblocks ~6502294134, outblocks ~1053814255