     Program PWSCF v.5.0.2 (svn rev. 9656) starts on 12Dec2015 at  4:53:12

     Current dimensions of program PWSCF are:
     Max number of different atomic species (ntypx) = 10
     Max number of k-points (npk) =  40000
     Max angular momentum in pseudopotentials (lmaxx) =  3
     Reading input from Fe_100_2x2_CO2_FH_scf.in
Warning: card  &IONS ignored
Warning: card  / ignored
Warning: card  &CELL ignored
Warning: card    PRESS=0.0 ignored
Warning: card    PRESS_CONV_THR=0.1 ignored
Warning: card  / ignored

     IMPORTANT: XC functional enforced from input :
     Exchange-correlation      = PBE ( 1 4 3 4 0)
     EXX-fraction              =        0.00
     Any further DFT definition will be discarded
     Please, verify this is what you really want

               file Fe.pbe-spn-kjpaw_psl.0.2.1.UPF: wavefunction(s)  3D renormalized
               file C.pbe-n-kjpaw_psl.0.1.upf: wavefunction(s)  2P renormalized
               file O.pbe-n-kjpaw_psl.0.1.UPF: wavefunction(s)  2P renormalized

   Task Groups are in USE
   groups and procs/group :     2    6

     bravais-lattice index     =            0
     lattice parameter (alat)  =       1.8897  a.u.
     unit-cell volume          =    3898.2644 (a.u.)^3
     number of atoms/cell      =           23
     number of atomic types    =            3
     number of electrons       =       336.00
     number of Kohn-Sham states=          202
     kinetic-energy cutoff     =      95.0000  Ry
     charge density cutoff     =     800.0000  Ry
     convergence threshold     =      1.0E-08
     mixing beta               =       0.5000
     number of iterations used =            8  local-TF  mixing
     Exchange-correlation      = PBE ( 1 4 3 4 0)
     EXX-fraction              =        0.00

     celldm(1)=   1.889727  celldm(2)=   0.000000  celldm(3)=   0.000000
     celldm(4)=   0.000000  celldm(5)=   0.000000  celldm(6)=   0.000000

     crystal axes: (cart. coord. in units of alat)
               a(1) = (   5.665012   0.000000   0.000000 )
               a(2) = (   0.000000   5.665012   0.000000 )
               a(3) = (   0.000000   0.000000  18.000000 )

     reciprocal axes: (cart. coord. in units 2 pi/alat)
               b(1) = (  0.176522 -0.000000  0.000000 )
               b(2) = (  0.000000  0.176522  0.000000 )
               b(3) = (  0.000000  0.000000  0.055556 )

     PseudoPot. # 1 for Fe read from file:
     /work/e05/e05/ablar/QE_PSEUDO/Fe.pbe-spn-kjpaw_psl.0.2.1.UPF
     MD5 check sum: a0a08122d52b112de96d1da1d7dd020f
     Pseudo is Projector augmented-wave + core cor, Zval = 16.0
     Generated using "atomic" code by A. Dal Corso  v.5.0.2 svn rev. 9415
     Shape of augmentation charge: PSQ
     Using radial grid of 1191 points,  6 beta functions with:
                l(1) =   0
                l(2) =   0
                l(3) =   1
                l(4) =   1
                l(5) =   2
                l(6) =   2
     Q(r) pseudized with 0 coefficients

     PseudoPot. # 2 for  C read from file:
     /work/e05/e05/ablar/QE_PSEUDO/C.pbe-n-kjpaw_psl.0.1.upf
     MD5 check sum: 430fe95172b1e11ef3f8ed03bac87931
     Pseudo is Projector augmented-wave + core cor, Zval =  4.0
     Generated using "atomic" code by A. Dal Corso  v.5.0.99 svn rev. 10869
     Shape of augmentation charge: BESSEL
     Using radial grid of 1073 points,  4 beta functions with:
                l(1) =   0
                l(2) =   0
                l(3) =   1
                l(4) =   1
     Q(r) pseudized with 0 coefficients

     PseudoPot. # 3 for  O read from file:
     /work/e05/e05/ablar/QE_PSEUDO/O.pbe-n-kjpaw_psl.0.1.UPF
     MD5 check sum: 1d826bf4880e2aee2c3af49d0719521d
     Pseudo is Projector augmented-wave + core cor, Zval =  6.0
     Generated using "atomic" code by A. Dal Corso  v.5.0.2 svn rev. 9415
     Shape of augmentation charge: BESSEL
     Using radial grid of 1095 points,  4 beta functions with:
                l(1) =   0
                l(2) =   0
                l(3) =   1
                l(4) =   1
     Q(r) pseudized with 0 coefficients

     atomic species   valence    mass     pseudopotential
        Fe            16.00    55.85000     Fe( 1.00)
        C              4.00    12.00000      C( 1.00)
        O              6.00    16.00000      O( 1.00)

     Starting magnetic structure
     atomic species   magnetization
        Fe           0.600
        C            0.000
        O            0.000

     Simplified LDA+U calculation (l_max = 2) with parameters (eV):
     atomic species    L          U    alpha       J0     beta
        Fe             2     0.0000   0.0000   0.0000   0.0000

     No symmetry found

                                    s                        frac. trans.

      isym =  1     identity

 cryst.   s( 1) = (     1          0          0      )
                  (     0          1          0      )
                  (     0          0          1      )

 cart.    s( 1) = (  1.0000000  0.0000000  0.0000000 )
                  (  0.0000000  1.0000000  0.0000000 )
                  (  0.0000000  0.0000000  1.0000000 )

     point group C_1 (1)
     there are  1 classes
     the character table:

       E
A      1.00

     the symmetry operations in each class:
     E        1

   Cartesian axes

     site n.     atom                  positions (alat units)
         1           Fe  tau(   1) = (   0.0000000   0.0000000  -2.8324989  )
         2           Fe  tau(   2) = (   0.0000000   2.8325089  -2.8324989  )
         3           Fe  tau(   3) = (   2.8325089   0.0000000  -2.8324989  )
         4           Fe  tau(   4) = (   2.8324989   2.8325089  -2.8324989  )
         5           Fe  tau(   5) = (   1.4162494   1.4162494  -1.4162594  )
         6           Fe  tau(   6) = (   1.4162494  -1.4162494  -1.4162594  )
         7           Fe  tau(   7) = (  -1.4162494   1.4162494  -1.4162594  )
         8           Fe  tau(   8) = (  -1.4162494  -1.4162494  -1.4162594  )
         9           Fe  tau(   9) = (   0.0000000   0.0000000   0.0000000  )
        10           Fe  tau(  10) = (   0.0000000   2.8324989   0.0000000  )
        11           Fe  tau(  11) = (   2.8324989   0.0000000   0.0000000  )
        12           Fe  tau(  12) = (   2.8324989   2.8324989   0.0000000  )
        13           Fe  tau(  13) = (   1.4039058   1.4081050   1.4147069  )
        14           Fe  tau(  14) = (   1.4172670  -1.4107878   1.3943714  )
        15           Fe  tau(  15) = (  -1.4154408   1.4390578   1.4387475  )
        16           Fe  tau(  16) = (  -1.4218781  -1.4193253   1.4071222  )
        17           Fe  tau(  17) = (  -0.0860061  -0.1053545   2.8930975  )
        18           Fe  tau(  18) = (   0.0471539   2.8841531   2.8840123  )
        19           Fe  tau(  19) = (   2.8115619   0.0741081   2.8252183  )
        20           Fe  tau(  20) = (   2.8860115   2.9448785   2.8847590  )
        21           C   tau(  21) = (   1.5606212   1.0531833   3.9931187  )
        22           O   tau(  22) = (   1.5011444   2.3673588   4.2651588  )
        23           O   tau(  23) = (   0.7744787   0.2486402   4.6329513  )

   Crystallographic axes

     site n.     atom                  positions (cryst. coord.)
         1           Fe  tau(   1) = (  0.0000000  0.0000000 -0.1573610  )
         2           Fe  tau(   2) = ( -0.0000000  0.5000005 -0.1573610  )
         3           Fe  tau(   3) = (  0.5000005  0.0000000 -0.1573610  )
         4           Fe  tau(   4) = (  0.4999987  0.5000005 -0.1573610  )
         5           Fe  tau(   5) = (  0.2499994  0.2499994 -0.0786811  )
         6           Fe  tau(   6) = (  0.2499994 -0.2499994 -0.0786811  )
         7           Fe  tau(   7) = ( -0.2499994  0.2499994 -0.0786811  )
         8           Fe  tau(   8) = ( -0.2499994 -0.2499994 -0.0786811  )
         9           Fe  tau(   9) = (  0.0000000  0.0000000  0.0000000  )
        10           Fe  tau(  10) = ( -0.0000000  0.4999987  0.0000000  )
        11           Fe  tau(  11) = (  0.4999987  0.0000000  0.0000000  )
        12           Fe  tau(  12) = (  0.4999987  0.4999987  0.0000000  )
        13           Fe  tau(  13) = (  0.2478204  0.2485617  0.0785948  )
        14           Fe  tau(  14) = (  0.2501790 -0.2490353  0.0774651  )
        15           Fe  tau(  15) = ( -0.2498566  0.2540256  0.0799304  )
        16           Fe  tau(  16) = ( -0.2509930 -0.2505423  0.0781735  )
        17           Fe  tau(  17) = ( -0.0151820 -0.0185974  0.1607276  )
        18           Fe  tau(  18) = (  0.0083237  0.5091169  0.1602229  )
        19           Fe  tau(  19) = (  0.4963029  0.0130817  0.1569566  )
        20           Fe  tau(  20) = (  0.5094449  0.5198362  0.1602644  )
        21           C   tau(  21) = (  0.2754842  0.1859102  0.2218399  )
        22           O   tau(  22) = (  0.2649852  0.4178912  0.2369533  )
        23           O   tau(  23) = (  0.1367126  0.0438905  0.2573862  )

     number of k points=    20  Marzari-Vanderbilt smearing, width (Ry)=  0.0400
                       cart. coord. in units 2pi/alat
        k(    1) = (   0.0000000   0.0000000   0.0000000), wk =   0.0625000
        k(    2) = (   0.0000000   0.0441305   0.0000000), wk =   0.1250000
        k(    3) = (   0.0000000  -0.0882611   0.0000000), wk =   0.0625000
        k(    4) = (   0.0441305   0.0441305   0.0000000), wk =   0.1250000
        k(    5) = (   0.0441305  -0.0882611   0.0000000), wk =   0.1250000
        k(    6) = (  -0.0882611  -0.0882611   0.0000000), wk =   0.0625000
        k(    7) = (   0.0441305  -0.0000000   0.0000000), wk =   0.1250000
        k(    8) = (  -0.0882611   0.0000000   0.0000000), wk =   0.0625000
        k(    9) = (  -0.0441305   0.0441305   0.0000000), wk =   0.1250000
        k(   10) = (  -0.0882611   0.0441305   0.0000000), wk =   0.1250000
        k(   11) = (   0.0000000   0.0000000   0.0000000), wk =   0.0625000
        k(   12) = (   0.0000000   0.0441305   0.0000000), wk =   0.1250000
        k(   13) = (   0.0000000  -0.0882611   0.0000000), wk =   0.0625000
        k(   14) = (   0.0441305   0.0441305   0.0000000), wk =   0.1250000
        k(   15) = (   0.0441305  -0.0882611   0.0000000), wk =   0.1250000
        k(   16) = (  -0.0882611  -0.0882611   0.0000000), wk =   0.0625000
        k(   17) = (   0.0441305  -0.0000000   0.0000000), wk =   0.1250000
        k(   18) = (  -0.0882611   0.0000000   0.0000000), wk =   0.0625000
        k(   19) = (  -0.0441305   0.0441305   0.0000000), wk =   0.1250000
        k(   20) = (  -0.0882611   0.0441305   0.0000000), wk =   0.1250000

                       cryst. coord.
        k(    1) = (   0.0000000   0.0000000   0.0000000), wk =   0.0625000
        k(    2) = (   0.0000000   0.2500000   0.0000000), wk =   0.1250000
        k(    3) = (   0.0000000  -0.5000000   0.0000000), wk =   0.0625000
        k(    4) = (   0.2500000   0.2500000   0.0000000), wk =   0.1250000
        k(    5) = (   0.2500000  -0.5000000   0.0000000), wk =   0.1250000
        k(    6) = (  -0.5000000  -0.5000000   0.0000000), wk =   0.0625000
        k(    7) = (   0.2500000   0.0000000   0.0000000), wk =   0.1250000
[...]
     1.0117   1.0159   1.0210   1.0254   1.0270   1.0347   1.0374   1.0433
     1.0438   1.0455   1.0490   1.0532   1.0723   1.0744   1.0772   1.0776
     1.0818   1.0594   0.9132   0.8177   0.7331   0.3431   0.2820   0.2709
     0.2121   0.1332   0.1182   0.1011   0.0849   0.0434   0.0364   0.0312
     0.0267   0.0199   0.0061   0.0035   0.0009   0.0006   0.0004   0.0001
     0.0001   0.0001   0.0001   0.0001   0.0000   0.0000   0.0000   0.0000
     0.0000   0.0000   0.0000   0.0000   0.0000   0.0000   0.0000   0.0000
     0.0000   0.0000   0.0000   0.0000   0.0000   0.0000   0.0000   0.0000
     0.0000   0.0000   0.0000   0.0000   0.0000   0.0000   0.0000   0.0000
     0.0000   0.0000   0.0000   0.0000   0.0000   0.0000   0.0000   0.0000
     0.0000   0.0000

     the Fermi energy is     5.1260 ev

!    total energy              =   -6686.50141890 Ry
     Harris-Foulkes estimate   =   -6686.50141891 Ry
     estimated scf accuracy    <          6.2E-09 Ry

     total all-electron energy =    -51287.890015 Ry

     The total energy is the sum of the following terms:

     one-electron contribution =  -25937.89317115 Ry
     hartree contribution      =   13033.63441061 Ry
     xc contribution           =    -715.21899733 Ry
     ewald contribution        =    8481.56380764 Ry
     Hubbard energy            =       0.00000000 Ry
     one-center paw contrib.   =   -1548.68485480 Ry
     smearing contrib. (-TS)   =       0.09738613 Ry

     total magnetization       =    50.83 Bohr mag/cell
     absolute magnetization    =    53.25 Bohr mag/cell

     convergence has been achieved in  28 iterations

     Forces acting on atoms (Ry/au):

     negative rho (up, down):  0.661E-04 0.125E-02
     atom    1 type  1   force =    -0.00040271   -0.00034214    0.00324070
     atom    2 type  1   force =    -0.00035461    0.00027350    0.00329363
     atom    3 type  1   force =     0.00031682   -0.00034026    0.00295089
     atom    4 type  1   force =     0.00017513    0.00025759    0.00336969
     atom    5 type  1   force =     0.00024090    0.00024335   -0.00885163
     atom    6 type  1   force =    -0.00015084   -0.00030067   -0.00906289
     atom    7 type  1   force =    -0.00003702   -0.00062535   -0.00512206
     atom    8 type  1   force =    -0.00074250    0.00114630   -0.00754287
     atom    9 type  1   force =    -0.00745623   -0.00112591    0.00595791
     atom   10 type  1   force =     0.00121248   -0.00291342    0.00418375
     atom   11 type  1   force =     0.00437639    0.00321196    0.00286271
     atom   12 type  1   force =     0.00288052    0.00058440    0.00505293
     atom   13 type  1   force =     0.00000358    0.00000552   -0.00004858
     atom   14 type  1   force =     0.00002691   -0.00000114   -0.00002927
     atom   15 type  1   force =     0.00000878    0.00002055    0.00001689
     atom   16 type  1   force =    -0.00004494   -0.00005222   -0.00002453
     atom   17 type  1   force =    -0.00001011   -0.00000625   -0.00005669
     atom   18 type  1   force =    -0.00001631    0.00002298   -0.00004575
     atom   19 type  1   force =     0.00007204    0.00000292   -0.00006482
     atom   20 type  1   force =     0.00004174    0.00000487   -0.00008831
     atom   21 type  2   force =    -0.00007101   -0.00001674   -0.00001456
     atom   22 type  3   force =    -0.00001733   -0.00003008   -0.00001064
     atom   23 type  3   force =    -0.00005168   -0.00001976    0.00003349
     The non-local contrib.  to forces
     atom    1 type  1   force =    -0.00011808    0.00204817   -0.39348074
     atom    2 type  1   force =     0.00128141   -0.00198320   -0.39189519
     atom    3 type  1   force =     0.00070193   -0.00076276   -0.39433206
     atom    4 type  1   force =    -0.00160388   -0.00085853   -0.39339166
     atom    5 type  1   force =     0.00169642   -0.00356802   -0.02742777
     atom    6 type  1   force =     0.00060351   -0.00039200   -0.03792150
     atom    7 type  1   force =    -0.00010853   -0.00009714   -0.03587860
     atom    8 type  1   force =     0.00071679   -0.00183935   -0.04264468
     atom    9 type  1   force =     0.01260915   -0.00018686    0.00030452
     atom   10 type  1   force =     0.00257545    0.00134349    0.00090455
     atom   11 type  1   force =    -0.01282795    0.00295637   -0.00339068
     atom   12 type  1   force =    -0.00138645    0.00112915   -0.00153006
     atom   13 type  1   force =     0.01026220    0.01478297    0.15942617
     atom   14 type  1   force =    -0.00791525   -0.00716775    0.03024452
     atom   15 type  1   force =    -0.01499026   -0.00167711    0.01156108
     atom   16 type  1   force =    -0.00497081    0.00826961   -0.02027687
     atom   17 type  1   force =     0.08211719    0.07656964    0.25101819
     atom   18 type  1   force =     0.10047155   -0.09301832    0.36590797
     atom   19 type  1   force =    -0.04379385   -0.05971994    0.23736009
     atom   20 type  1   force =    -0.04570648   -0.05744990    0.30650534
     atom   21 type  2   force =    -0.47450694    0.30206045    0.26918199
     atom   22 type  3   force =     0.10933453   -1.52995695   -1.07840750
     atom   23 type  3   force =     0.99901602    1.15181030   -1.53793591
     The ionic contribution  to forces
     atom    1 type  1   force =    -0.03613974    0.03698288 -264.53411215
     atom    2 type  1   force =    -0.02895404   -0.03673469 -264.53669772
     atom    3 type  1   force =     0.03588114    0.03850577 -264.54280381
     atom    4 type  1   force =     0.02865580   -0.03840832 -264.53916393
     atom    5 type  1   force =     0.00083654    0.03667832 -146.77294868
     atom    6 type  1   force =    -0.01748535   -0.03402358 -147.09724215
     atom    7 type  1   force =     0.01006551   -0.04186788 -146.37652482
     atom    8 type  1   force =     0.02287966    0.02760111 -146.83500861
     atom    9 type  1   force =    -0.87320190    0.69976208  -13.74835472
     atom   10 type  1   force =    -0.41134905   -0.57315525  -13.89893564
     atom   11 type  1   force =     0.84136479    0.69384834  -14.23148696
     atom   12 type  1   force =     0.23681884   -0.73951113  -13.83968605
     atom   13 type  1   force =    -0.97468572    0.88055517  115.31661208
     atom   14 type  1   force =     0.39216030    0.04018491  115.67795626
     atom   15 type  1   force =     1.09555186    0.29646079  121.40139359
     atom   16 type  1   force =    -0.28853344    0.06435559  117.47001789
     atom   17 type  1   force =    -7.96204371   -1.15509031  234.76143508
     atom   18 type  1   force =    -9.23505588    1.16238192  237.89795098
     atom   19 type  1   force =     7.94876582   -4.83493888  236.54710848
     atom   20 type  1   force =     8.38729870    3.08642428  238.96012002
     atom   21 type  2   force =     3.71556254   -0.37582084   66.79915455
     atom   22 type  3   force =     0.56364974    6.30146799  108.38951425
     atom   23 type  3   force =    -3.45204242   -5.53565824  107.73170208
     The local contribution  to forces
     atom    1 type  1   force =     0.03585317   -0.03941919  264.94375489
     atom    2 type  1   force =     0.02733113    0.03889775  264.94478777
     atom    3 type  1   force =    -0.03636097   -0.03811746  264.95295145
     atom    4 type  1   force =    -0.02694030    0.03952846  264.94881207
     atom    5 type  1   force =    -0.00202448   -0.03289490  146.79158191
     atom    6 type  1   force =     0.01668578    0.03410294  147.12631877
     atom    7 type  1   force =    -0.00997103    0.04132158  146.40764321
     atom    8 type  1   force =    -0.02429420   -0.02461769  146.87068581
     atom    9 type  1   force =     0.85319935   -0.70109947   13.75380760
     atom   10 type  1   force =     0.41028796    0.56870063   13.90238930
     atom   11 type  1   force =    -0.82389902   -0.69438450   14.23780591
     atom   12 type  1   force =    -0.23272694    0.73875487   13.84614404
     atom   13 type  1   force =     0.96457348   -0.89435091 -115.47994008
     atom   14 type  1   force =    -0.38431496   -0.03377395 -115.70942439
     atom   15 type  1   force =    -1.08048825   -0.29403941 -121.41356899
     atom   16 type  1   force =     0.29309751   -0.07207757 -117.44773854
     atom   17 type  1   force =     7.87673980    1.07772793 -235.03115421
     atom   18 type  1   force =     9.13130133   -1.06649110 -238.28083164
     atom   19 type  1   force =    -7.90847785    4.90173732 -236.79072770
     atom   20 type  1   force =    -8.33630530   -3.02494003 -239.28521418
     atom   21 type  2   force =    -3.24897793    0.08173909  -67.06507204
     atom   22 type  3   force =    -0.67192271   -4.78542635 -107.32175526
     atom   23 type  3   force =     2.46171356    4.39390327 -106.20794780
     The core correction contribution to forces
     atom    1 type  1   force =    -0.00000010    0.00003717   -0.01297179
     atom    2 type  1   force =    -0.00001470    0.00010720   -0.01295118
     atom    3 type  1   force =     0.00009649    0.00002427   -0.01291348
     atom    4 type  1   force =     0.00006556    0.00001028   -0.01293820
     atom    5 type  1   force =    -0.00026351    0.00003173   -0.00018641
     atom    6 type  1   force =     0.00004872    0.00001187   -0.00034710
     atom    7 type  1   force =    -0.00002678    0.00002272   -0.00048805
     atom    8 type  1   force =    -0.00004776    0.00000142   -0.00070683
     atom    9 type  1   force =    -0.00006848    0.00039050    0.00008713
     atom   10 type  1   force =    -0.00030926    0.00021124   -0.00028477
     atom   11 type  1   force =    -0.00025581    0.00078432   -0.00018875
     atom   12 type  1   force =     0.00018232    0.00022380    0.00001229
     atom   13 type  1   force =    -0.00015610   -0.00096492    0.00366475
     atom   14 type  1   force =     0.00008825    0.00074317    0.00101127
     atom   15 type  1   force =    -0.00005435   -0.00070432    0.00045261
     atom   16 type  1   force =     0.00037038   -0.00061404   -0.00221049
     atom   17 type  1   force =     0.00315339    0.00077649    0.01847343
     atom   18 type  1   force =     0.00325040   -0.00283889    0.01676688
     atom   19 type  1   force =     0.00361182   -0.00709212    0.00600986
     atom   20 type  1   force =    -0.00522734   -0.00401992    0.01833285
     atom   21 type  2   force =     0.00784591   -0.00798554   -0.00330980
     atom   22 type  3   force =    -0.00108163    0.01390905    0.01060999
     atom   23 type  3   force =    -0.00875652   -0.01008578    0.01421131
     The Hubbard contrib.    to forces
     atom    1 type  1   force =    -0.00000000   -0.00000000   -0.00000000
     atom    2 type  1   force =    -0.00000000    0.00000000   -0.00000000
     atom    3 type  1   force =    -0.00000000    0.00000000   -0.00000000
     atom    4 type  1   force =     0.00000000    0.00000000   -0.00000000
     atom    5 type  1   force =     0.00000000   -0.00000000   -0.00000000
     atom    6 type  1   force =    -0.00000000   -0.00000000   -0.00000000
     atom    7 type  1   force =    -0.00000000   -0.00000000    0.00000000
     atom    8 type  1   force =     0.00000000   -0.00000000    0.00000000
     atom    9 type  1   force =     0.00000000   -0.00000000   -0.00000000
     atom   10 type  1   force =     0.00000000   -0.00000000   -0.00000000
     atom   11 type  1   force =    -0.00000000   -0.00000000    0.00000000
     atom   12 type  1   force =     0.00000000    0.00000000   -0.00000000
     atom   13 type  1   force =     0.00000000   -0.00000000    0.00000000
     atom   14 type  1   force =    -0.00000000   -0.00000000   -0.00000000
     atom   15 type  1   force =    -0.00000000    0.00000000   -0.00000000
     atom   16 type  1   force =    -0.00000000    0.00000000    0.00000000
     atom   17 type  1   force =    -0.00000000   -0.00000000    0.00000000
     atom   18 type  1   force =    -0.00000000   -0.00000000    0.00000000
     atom   19 type  1   force =    -0.00000000    0.00000000    0.00000000
     atom   20 type  1   force =     0.00000000    0.00000000    0.00000000
     atom   21 type  2   force =    -0.00000000    0.00000000    0.00000000
     atom   22 type  3   force =     0.00000000   -0.00000000    0.00000000
     atom   23 type  3   force =     0.00000000    0.00000000    0.00000000
     The SCF correction term to forces
     atom    1 type  1   force =     0.00000000    0.00000000    0.00000000
     atom    2 type  1   force =     0.00000000    0.00000000    0.00000000
     atom    3 type  1   force =     0.00000000    0.00000000    0.00000000
     atom    4 type  1   force =     0.00000000    0.00000000    0.00000000
     atom    5 type  1   force =     0.00000000    0.00000000    0.00000000
     atom    6 type  1   force =     0.00000000    0.00000000    0.00000000
     atom    7 type  1   force =     0.00000000    0.00000000    0.00000000
     atom    8 type  1   force =     0.00000000    0.00000000    0.00000000
     atom    9 type  1   force =     0.00000000    0.00000000    0.00000000
     atom   10 type  1   force =     0.00000000    0.00000000    0.00000000
     atom   11 type  1   force =     0.00000000    0.00000000    0.00000000
     atom   12 type  1   force =     0.00000000    0.00000000    0.00000000
     atom   13 type  1   force =     0.00000978   -0.00001472    0.00015937
     atom   14 type  1   force =     0.00000862    0.00001455    0.00015393
     atom   15 type  1   force =    -0.00001015   -0.00001733    0.00014947
     atom   16 type  1   force =    -0.00000852    0.00001626    0.00015434
     atom   17 type  1   force =     0.00002327    0.00001207    0.00014170
     atom   18 type  1   force =     0.00001635   -0.00000856    0.00013092
     atom   19 type  1   force =    -0.00003385    0.00001860    0.00015532
     atom   20 type  1   force =    -0.00001779   -0.00000750    0.00013852
     atom   21 type  2   force =     0.00000546   -0.00000784    0.00000162
     atom   22 type  3   force =     0.00000280   -0.00002175   -0.00000127
     atom   23 type  3   force =     0.00001773    0.00001276   -0.00002531

     Total force =     0.000215     Total SCF correction =     0.000426
     SCF correction compared to forces is large: reduce conv_thr to get better values

     entering subroutine stress ...

     negative rho (up, down):  0.661E-04 0.125E-02
          total   stress  (Ry/bohr**3)                   (kbar)     P=  -13.35
  -0.00015104   0.00001568   0.00000077        -22.22      2.31      0.11
   0.00001568  -0.00012423  -0.00000026          2.31    -18.27     -0.04
   0.00000077  -0.00000026   0.00000304          0.11     -0.04      0.45

     kinetic stress (kbar)  32842.25    -36.02     -6.28
                              -36.02  32797.67     24.14
                               -6.28     24.14  32778.16

     local   stress (kbar)-861445.68   -472.05    125.61
                             -472.05-862010.43    338.38
                              125.61    338.38 910292.80

     nonloc. stress (kbar) -24592.77      6.38      5.65
                                6.38 -24586.79     -5.12
                                5.65     -5.12 -24536.37

     hartree stress (kbar) 455765.47    163.29    -20.64
                              163.29 455999.07   -130.37
                              -20.64   -130.37-419926.81

     exc-cor stress (kbar)  -1186.16      0.70     -0.93
                                0.70  -1184.83     -0.11
                               -0.93     -0.11  -1191.55

     corecor stress (kbar)  -6638.59     -0.00      0.27
                               -0.00  -6638.72     -0.07
                                0.27     -0.07  -6637.34

     ewald   stress (kbar) 405233.28    340.01   -103.57
                              340.01 405605.76   -226.89
                             -103.57   -226.89-490778.43

     hubbard stress (kbar)     -0.00      0.00      0.00
                                0.00     -0.00     -0.00
                                0.00     -0.00     -0.00

     london  stress (kbar)      0.00      0.00      0.00
                                0.00      0.00      0.00
                                0.00      0.00      0.00

     dft-nl  stress (kbar)      0.00      0.00      0.00
                                0.00      0.00      0.00
                                0.00      0.00      0.00

     Writing output data file Fe_100_2x2_CO2_FH.save

     General routines

     Parallel routines
     Hubbard U routines

     PAW routines

   This run was terminated on:   5:42:58  12Dec2015

   JOB DONE.
Application 19354493 resources: utime ~138502s, stime ~4283s, Rss ~662584, inblocks ~6223911613, outblocks ~993442111