     Program PWSCF v.5.0.2 (svn rev. 9656) starts on  5Aug2015 at  3:16:17

     Current dimensions of program PWSCF are:
     Max number of different atomic species (ntypx) = 10
     Max number of k-points (npk) =  40000
     Max angular momentum in pseudopotentials (lmaxx) =  3
     Reading input from Fe_110_2x2_scf.in
Warning: card  &CELL ignored
Warning: card    PRESS=0.0 ignored
Warning: card    PRESS_CONV_THR=0.1 ignored
Warning: card  / ignored
Warning: card S  32 S.PBE-N-KJPAW_PSL.0.1.UPF ignored
Warning: card H  1  H.PBE-KJPAW_PSL.0.1.UPF ignored

     IMPORTANT: XC functional enforced from input :
     Exchange-correlation      = PBE ( 1 4 3 4 0)
     EXX-fraction              =        0.00
     Any further DFT definition will be discarded
     Please, verify this is what you really want

               file Fe.pbe-spn-kjpaw_psl.0.2.1.UPF: wavefunction(s)  3D renormalized

     Found symmetry operation: I + ( -0.0000  0.5000  0.0000)
     This is a supercell, fractional translations are disabled

   Task Groups are in USE
   groups and procs/group :     2    6

     bravais-lattice index     =            0
     lattice parameter (alat)  =       1.8897  a.u.
     unit-cell volume          =    3139.3349 (a.u.)^3
     number of atoms/cell      =           20
     number of atomic types    =            1
     number of electrons       =       320.00
     number of Kohn-Sham states=          192
     kinetic-energy cutoff     =      95.0000  Ry
     charge density cutoff     =     800.0000  Ry
     convergence threshold     =      1.0E-08
     mixing beta               =       0.5000
     number of iterations used =            8  local-TF  mixing
     Exchange-correlation      = PBE ( 1 4 3 4 0)
     EXX-fraction              =        0.00
     nstep                     =         1000

     celldm(1)=   1.889727  celldm(2)=   0.000000  celldm(3)=   0.000000
     celldm(4)=   0.000000  celldm(5)=   0.000000  celldm(6)=   0.000000

     crystal axes: (cart. coord. in units of alat)
               a(1) = (   4.906044   0.000000   0.000000 )
               a(2) = (  -1.635348   4.625463   0.000000 )
               a(3) = (   0.000000   0.000000  20.500000 )

     reciprocal axes: (cart. coord. in units 2 pi/alat)
               b(1) = (  0.203830  0.072065  0.000000 )
               b(2) = (  0.000000  0.216195  0.000000 )
               b(3) = (  0.000000  0.000000  0.048780 )

     PseudoPot. # 1 for Fe read from file:
     /work/e05/e05/ablar/QE_PSEUDO/Fe.pbe-spn-kjpaw_psl.0.2.1.UPF
     MD5 check sum: a0a08122d52b112de96d1da1d7dd020f
     Pseudo is Projector augmented-wave + core cor, Zval = 16.0
     Generated using "atomic" code by A. Dal Corso  v.5.0.2 svn rev. 9415
     Shape of augmentation charge: PSQ
     Using radial grid of 1191 points,  6 beta functions with:
                l(1) =   0
                l(2) =   0
                l(3) =   1
                l(4) =   1
                l(5) =   2
                l(6) =   2
     Q(r) pseudized with 0 coefficients

     atomic species   valence    mass     pseudopotential
        Fe            16.00    55.85000     Fe( 1.00)

     Starting magnetic structure
     atomic species   magnetization
        Fe           0.600

     Simplified LDA+U calculation (l_max = 2) with parameters (eV):
     atomic species    L          U    alpha       J0     beta
        Fe             2     0.0000   0.0000   0.0000   0.0000

      2 Sym. Ops. (no inversion) found

                                    s                        frac. trans.

      isym =  1     identity

 cryst.   s( 1) = (     1          0          0      )
                  (     0          1          0      )
                  (     0          0          1      )

 cart.    s( 1) = (  1.0000000  0.0000000  0.0000000 )
                  (  0.0000000  1.0000000  0.0000000 )
                  (  0.0000000  0.0000000  1.0000000 )

      isym =  2     180 deg rotation - cart. axis [0,0,1]

 cryst.   s( 2) = (    -1          0          0      )
                  (     0         -1          0      )
                  (     0          0          1      )

 cart.    s( 2) = ( -1.0000000  0.0000000  0.0000000 )
                  (  0.0000000 -1.0000000  0.0000000 )
                  (  0.0000000  0.0000000  1.0000000 )

     point group C_2  (2)
     there are  2 classes
     the character table:

       E     C2
A      1.00  1.00
B      1.00 -1.00

     the symmetry operations in each class:
     E        1
     C2       2

   Cartesian axes

     site n.     atom                  positions (alat units)
         1           Fe  tau(   1) = (   0.0000000   0.0000000  -4.0057668  )
         2           Fe  tau(   2) = (  -0.8176737   2.3127306  -4.0057668  )
         3           Fe  tau(   3) = (   2.4530212   0.0000000  -4.0057668  )
         4           Fe  tau(   4) = (  -3.2706949   2.3127306  -4.0057668  )
         5           Fe  tau(   5) = (   0.8176737   1.1563653  -2.0028834  )
         6           Fe  tau(   6) = (  -0.8176737  -1.1563653  -2.0028834  )
         7           Fe  tau(   7) = (   1.6353475  -1.1563653  -2.0028834  )
         8           Fe  tau(   8) = (  -1.6353475   1.1563653  -2.0028834  )
         9           Fe  tau(   9) = (   0.0000000   0.0000000   0.0000000  )
        10           Fe  tau(  10) = (  -0.8176737   2.3127306   0.0000000  )
        11           Fe  tau(  11) = (   2.4530212   0.0000000   0.0000000  )
        12           Fe  tau(  12) = (  -3.2706949   2.3127306   0.0000000  )
        13           Fe  tau(  13) = (   0.8176743   1.1563657   1.9804250  )
        14           Fe  tau(  14) = (  -0.8176743  -1.1563657   1.9804250  )
        15           Fe  tau(  15) = (   1.6353479  -1.1563660   1.9804344  )
        16           Fe  tau(  16) = (  -1.6353479   1.1563660   1.9804344  )
        17           Fe  tau(  17) = (   0.0000000   0.0000000   3.9733457  )
        18           Fe  tau(  18) = (  -0.8176737   2.3127306   3.9733505  )
        19           Fe  tau(  19) = (   2.4530212   0.0000000   3.9733508  )
        20           Fe  tau(  20) = (  -3.2706949   2.3127306   3.9733470  )

   Crystallographic axes

     site n.     atom                  positions (cryst. coord.)
         1           Fe  tau(   1) = (  0.0000000  0.0000000 -0.1954033  )
         2           Fe  tau(   2) = ( -0.0000000  0.4999998 -0.1954033  )
         3           Fe  tau(   3) = (  0.4999998  0.0000000 -0.1954033  )
         4           Fe  tau(   4) = ( -0.4999998  0.4999998 -0.1954033  )
         5           Fe  tau(   5) = (  0.2499999  0.2499999 -0.0977016  )
         6           Fe  tau(   6) = ( -0.2499999 -0.2499999 -0.0977016  )
         7           Fe  tau(   7) = (  0.2499999 -0.2499999 -0.0977016  )
         8           Fe  tau(   8) = ( -0.2499999  0.2499999 -0.0977016  )
         9           Fe  tau(   9) = (  0.0000000  0.0000000  0.0000000  )
        10           Fe  tau(  10) = ( -0.0000000  0.4999998  0.0000000  )
        11           Fe  tau(  11) = (  0.4999998  0.0000000  0.0000000  )
        12           Fe  tau(  12) = ( -0.4999998  0.4999998  0.0000000  )
        13           Fe  tau(  13) = (  0.2500001  0.2500000  0.0966061  )
        14           Fe  tau(  14) = ( -0.2500001 -0.2500000  0.0966061  )
        15           Fe  tau(  15) = (  0.2499999 -0.2500001  0.0966066  )
        16           Fe  tau(  16) = ( -0.2499999  0.2500001  0.0966066  )
        17           Fe  tau(  17) = (  0.0000000  0.0000000  0.1938217  )
        18           Fe  tau(  18) = ( -0.0000000  0.4999998  0.1938220  )
        19           Fe  tau(  19) = (  0.4999998  0.0000000  0.1938220  )
        20           Fe  tau(  20) = ( -0.4999998  0.4999998  0.1938218  )

     number of k points=    20  Marzari-Vanderbilt smearing, width (Ry)=  0.0400
                       cart. coord. in units 2pi/alat
        k(    1) = (   0.0000000   0.0000000   0.0000000), wk =   0.0625000
        k(    2) = (   0.0000000   0.0540486   0.0000000), wk =   0.1250000
        k(    3) = (   0.0000000  -0.1080973   0.0000000), wk =   0.0625000
        k(    4) = (   0.0509576   0.0180162   0.0000000), wk =   0.1250000
        k(    5) = (   0.0509576   0.0720649   0.0000000), wk =   0.1250000
        k(    6) = (   0.0509576  -0.0900811   0.0000000), wk =   0.1250000
        k(    7) = (   0.0509576  -0.0360324   0.0000000), wk =   0.1250000
        k(    8) = (  -0.1019151  -0.0360324   0.0000000), wk =   0.0625000
        k(    9) = (  -0.1019151   0.0180162   0.0000000), wk =   0.1250000
        k(   10) = (  -0.1019151  -0.1441297   0.0000000), wk =   0.0625000
        k(   11) = (   0.0000000   0.0000000   0.0000000), wk =   0.0625000
        k(   12) = (   0.0000000   0.0540486   0.0000000), wk =   0.1250000
        k(   13) = (   0.0000000  -0.1080973   0.0000000), wk =   0.0625000
        k(   14) = (   0.0509576   0.0180162   0.0000000), wk =   0.1250000
        k(   15) = (   0.0509576   0.0720649   0.0000000), wk =   0.1250000
        k(   16) = (   0.0509576  -0.0900811   0.0000000), wk =   0.1250000
        k(   17) = (   0.0509576  -0.0360324   0.0000000), wk =   0.1250000
        k(   18) = (  -0.1019151  -0.0360324   0.0000000), wk =   0.0625000
        k(   19) = (  -0.1019151   0.0180162   0.0000000), wk =   0.1250000
        k(   20) = (  -0.1019151  -0.1441297   0.0000000), wk =   0.0625000

                       cryst. coord.
        k(    1) = (   0.0000000   0.0000000   0.0000000), wk =   0.0625000
        k(    2) = (   0.0000000   0.2500000   0.0000000), wk =   0.1250000
        k(    3) = (   0.0000000  -0.5000000   0.0000000), wk =   0.0625000
        k(    4) = (   0.2500000   0.0000000   0.0000000), wk =   0.1250000
        k(    5) = (   0.2500000   0.2500000   0.0000000), wk =   0.1250000
        k(    6) = (   0.2500000  -0.5000000   0.0000000), wk =   0.1250000
        k(    7) = (   0.2500000  -0.2500000   0.0000000), wk =   0.1250000
        k(    8) = (  -0.5000000  -0.0000000   0.0000000), wk =   0.0625000
        k(    9) = (  -0.5000000   0.2500000   0.0000000), wk =   0.1250000
        k(   10) = (  -0.5000000  -0.5000000   0.0000000), wk =   0.0625000
        k(   11) = (   0.0000000   0.0000000   0.0000000), wk =   0.0625000
        k(   12) = (   0.0000000   0.2500000   0.0000000), wk =   0.1250000
        k(   13) = (   0.0000000  -0.5000000   0.0000000), wk =   0.0625000
        k(   14) = (   0.2500000   0.0000000   0.0000000), wk =   0.1250000
        k(   15) = (   0.2500000   0.2500000   0.0000000), wk =   0.1250000
        k(   16) = (   0.2500000  -0.5000000   0.0000000), wk =   0.1250000
        k(   17) = (   0.2500000  -0.2500000   0.0000000), wk =   0.1250000
        k(   18) = (  -0.5000000  -0.0000000   0.0000000), wk =   0.0625000
        k(   19) = (  -0.5000000   0.2500000   0.0000000), wk =   0.1250000
        k(   20) = (  -0.5000000  -0.5000000   0.0000000), wk =   0.0625000

     Largest allocated arrays     est. size (Mb)     dimensions
     Largest temporary arrays     est. size (Mb)     dimensions

     Check: negative/imaginary core charge=   -0.000012    0.000000

[...]
     1.0000   1.0000   1.0001   1.0001   1.0004   1.0004   1.0005   1.0005
     1.0022   1.0022   1.0037   1.0037   1.0078   1.0078   1.0363   1.0363
     1.0425   1.0425   1.0430   1.0430   1.0692   1.0692   1.0818   1.0818
     1.0823   1.0823   1.0767   1.0767   1.0510   1.0510   0.8194   0.8194
     0.7546   0.7546   0.7524   0.7524   0.5721   0.5721   0.4854   0.4853
     0.3842   0.3842   0.3822   0.3822   0.3479   0.3478   0.2145   0.2145
     0.0280   0.0280   0.0134   0.0134   0.0095   0.0095   0.0073   0.0073
     0.0069   0.0069   0.0067   0.0067   0.0015   0.0015   0.0006   0.0006
     0.0003   0.0003   0.0001   0.0001   0.0000   0.0000   0.0000   0.0000
     0.0000   0.0000   0.0000   0.0000   0.0000   0.0000   0.0000   0.0000
     0.0000   0.0000   0.0000   0.0000   0.0000   0.0000   0.0000   0.0000
     0.0000   0.0000   0.0000   0.0000   0.0000   0.0000   0.0000   0.0000

     the Fermi energy is     6.6244 ev

!    total energy              =   -6584.86222251 Ry
     Harris-Foulkes estimate   =   -6584.86222250 Ry
     estimated scf accuracy    <          3.1E-09 Ry

     total all-electron energy =    -50910.792933 Ry

     The total energy is the sum of the following terms:

     one-electron contribution =  -29993.01142081 Ry
     hartree contribution      =   15071.58535762 Ry
     xc contribution           =    -696.28523944 Ry
     ewald contribution        =   10555.73022643 Ry
     Hubbard energy            =       0.00000000 Ry
     one-center paw contrib.   =   -1523.01269712 Ry
     smearing contrib. (-TS)   =       0.13155081 Ry

     total magnetization       =    46.87 Bohr mag/cell
     absolute magnetization    =    48.92 Bohr mag/cell

     convergence has been achieved in  28 iterations

     Forces acting on atoms (Ry/au):

     negative rho (up, down):  0.593E-04 0.667E-03
     atom    1 type  1   force =     0.00000000    0.00000000    0.00168844
     atom    2 type  1   force =     0.00000000    0.00000000    0.00169570
     atom    3 type  1   force =     0.00000000    0.00000000    0.00169558
     atom    4 type  1   force =     0.00000000    0.00000000    0.00169149
     atom    5 type  1   force =    -0.00000050    0.00000077    0.00295634
     atom    6 type  1   force =     0.00000050   -0.00000077    0.00295634
     atom    7 type  1   force =    -0.00000041   -0.00000163    0.00296032
     atom    8 type  1   force =     0.00000041    0.00000163    0.00296032
     atom    9 type  1   force =     0.00000000    0.00000000   -0.00460585
     atom   10 type  1   force =     0.00000000    0.00000000   -0.00461190
     atom   11 type  1   force =     0.00000000    0.00000000   -0.00461069
     atom   12 type  1   force =     0.00000000    0.00000000   -0.00460536
     atom   13 type  1   force =    -0.00000052    0.00000046   -0.00000319
     atom   14 type  1   force =     0.00000052   -0.00000046   -0.00000319
     atom   15 type  1   force =    -0.00000045   -0.00000093   -0.00000775
     atom   16 type  1   force =     0.00000045    0.00000093   -0.00000775
     atom   17 type  1   force =     0.00000000    0.00000000   -0.00003959
     atom   18 type  1   force =     0.00000000    0.00000000   -0.00003513
     atom   19 type  1   force =     0.00000000    0.00000000   -0.00003592
     atom   20 type  1   force =     0.00000000    0.00000000   -0.00003819
     The non-local contrib.  to forces
     atom    1 type  1   force =     0.00000000    0.00000000   -0.19573308
     atom    2 type  1   force =     0.00000000    0.00000000   -0.19572680
     atom    3 type  1   force =     0.00000000    0.00000000   -0.19572661
     atom    4 type  1   force =     0.00000000    0.00000000   -0.19573043
     atom    5 type  1   force =    -0.00000076    0.00000017   -0.02857588
     atom    6 type  1   force =     0.00000076   -0.00000017   -0.02857588
     atom    7 type  1   force =    -0.00000069   -0.00000087   -0.02857415
     atom    8 type  1   force =     0.00000069    0.00000087   -0.02857415
     atom    9 type  1   force =     0.00000000    0.00000000    0.00477992
     atom   10 type  1   force =     0.00000000    0.00000000    0.00477141
     atom   11 type  1   force =     0.00000000    0.00000000    0.00477261
     atom   12 type  1   force =     0.00000000    0.00000000    0.00478085
     atom   13 type  1   force =    -0.00000050    0.00000024    0.02703391
     atom   14 type  1   force =     0.00000050   -0.00000024    0.02703391
     atom   15 type  1   force =    -0.00000041   -0.00000102    0.02703603
     atom   16 type  1   force =     0.00000041    0.00000102    0.02703603
     atom   17 type  1   force =     0.00000000    0.00000000    0.19256657
     atom   18 type  1   force =     0.00000000    0.00000000    0.19256866
     atom   19 type  1   force =     0.00000000    0.00000000    0.19256850
     atom   20 type  1   force =     0.00000000    0.00000000    0.19256977
     The ionic contribution  to forces
     atom    1 type  1   force =    -0.00002788   -0.00003763 -323.62164936
     atom    2 type  1   force =     0.00002897    0.00004011 -323.62162565
     atom    3 type  1   force =     0.00004228   -0.00006594 -323.62162563
     atom    4 type  1   force =    -0.00004118    0.00006843 -323.62160269
     atom    5 type  1   force =     0.00003386    0.00007538 -163.30419053
     atom    6 type  1   force =    -0.00005764   -0.00005354 -163.30419042
     atom    7 type  1   force =     0.00006164   -0.00005235 -163.30418020
     atom    8 type  1   force =    -0.00004224    0.00002056 -163.30418032
     atom    9 type  1   force =    -0.00002819   -0.00003831   -0.72532749
     atom   10 type  1   force =     0.00003046    0.00004342   -0.72523361
     atom   11 type  1   force =     0.00004470   -0.00006504   -0.72522190
     atom   12 type  1   force =    -0.00004243    0.00007016   -0.72537781
     atom   13 type  1   force =     0.00000079    0.00001312  163.27206670
     atom   14 type  1   force =    -0.00002514    0.00000927  163.27206632
     atom   15 type  1   force =     0.00002427   -0.00000376  163.27260712
     atom   16 type  1   force =    -0.00000451   -0.00002899  163.27260750
     atom   17 type  1   force =    -0.00002789   -0.00003766  324.37857987
     atom   18 type  1   force =     0.00002902    0.00004020  324.37892094
     atom   19 type  1   force =     0.00004234   -0.00006594  324.37892314
     atom   20 type  1   force =    -0.00004122    0.00006849  324.37863404
     The local contribution  to forces
     atom    1 type  1   force =    -0.00000000   -0.00000000  323.82803404
     atom    2 type  1   force =    -0.00010550    0.00030377  323.82802230
     atom    3 type  1   force =     0.00032188    0.00000178  323.82802134
     atom    4 type  1   force =    -0.00042739    0.00030199  323.82798846
     atom    5 type  1   force =    -0.00004924   -0.00006199  163.33745407
     atom    6 type  1   force =     0.00004924    0.00006199  163.33745407
     atom    7 type  1   force =    -0.00005581    0.00003025  163.33745265
     atom    8 type  1   force =     0.00005581   -0.00003025  163.33745265
     atom    9 type  1   force =    -0.00000000   -0.00000000    0.71611655
     atom   10 type  1   force =    -0.00010643    0.00030074    0.71600634
     atom   11 type  1   force =     0.00031933   -0.00000011    0.71599557
     atom   12 type  1   force =    -0.00042576    0.00030084    0.71616680
     atom   13 type  1   force =    -0.00001519    0.00000037 -163.30106017
     atom   14 type  1   force =     0.00001519   -0.00000037 -163.30106017
     atom   15 type  1   force =    -0.00001713   -0.00001698 -163.30160565
     atom   16 type  1   force =     0.00001713    0.00001698 -163.30160565
     atom   17 type  1   force =     0.00000000   -0.00000000 -324.58011160
     atom   18 type  1   force =    -0.00010553    0.00030370 -324.58044610
     atom   19 type  1   force =     0.00032182    0.00000173 -324.58044727
     atom   20 type  1   force =    -0.00042736    0.00030197 -324.58016609
     The core correction contribution to forces
     atom    1 type  1   force =     0.00000000   -0.00000000   -0.00885202
     atom    2 type  1   force =     0.00000389   -0.00001103   -0.00885205
     atom    3 type  1   force =    -0.00001171   -0.00000001   -0.00885207
     atom    4 type  1   force =     0.00001561   -0.00001102   -0.00885204
     atom    5 type  1   force =     0.00000001    0.00000002   -0.00162587
     atom    6 type  1   force =    -0.00000001   -0.00000002   -0.00162587
     atom    7 type  1   force =     0.00000003   -0.00000003   -0.00162575
     atom    8 type  1   force =    -0.00000002    0.00000003   -0.00162575
     atom    9 type  1   force =    -0.00000000   -0.00000000   -0.00020103
     atom   10 type  1   force =     0.00000389   -0.00001101   -0.00020102
     atom   11 type  1   force =    -0.00001168   -0.00000001   -0.00020101
     atom   12 type  1   force =     0.00001557   -0.00001100   -0.00020104
     atom   13 type  1   force =     0.00000001    0.00000000    0.00182148
     atom   14 type  1   force =    -0.00000001   -0.00000000    0.00182149
     atom   15 type  1   force =     0.00000001   -0.00000000    0.00182125
     atom   16 type  1   force =    -0.00000000    0.00000000    0.00182124
     atom   17 type  1   force =     0.00000001    0.00000000    0.00882004
     atom   18 type  1   force =     0.00000389   -0.00001104    0.00882024
     atom   19 type  1   force =    -0.00001171   -0.00000001    0.00882016
     atom   20 type  1   force =     0.00001560   -0.00001102    0.00882006
     The Hubbard contrib.    to forces
     atom    1 type  1   force =     0.00000000    0.00000000   -0.00000000
     atom    2 type  1   force =     0.00000000    0.00000000   -0.00000000
     atom    3 type  1   force =     0.00000000    0.00000000   -0.00000000
     atom    4 type  1   force =     0.00000000    0.00000000   -0.00000000
     atom    5 type  1   force =    -0.00000000   -0.00000000    0.00000000
     atom    6 type  1   force =     0.00000000    0.00000000    0.00000000
     atom    7 type  1   force =    -0.00000000    0.00000000    0.00000000
     atom    8 type  1   force =     0.00000000   -0.00000000    0.00000000
     atom    9 type  1   force =     0.00000000    0.00000000    0.00000000
     atom   10 type  1   force =     0.00000000    0.00000000    0.00000000
     atom   11 type  1   force =     0.00000000    0.00000000    0.00000000
     atom   12 type  1   force =     0.00000000    0.00000000    0.00000000
     atom   13 type  1   force =    -0.00000000   -0.00000000   -0.00000000
     atom   14 type  1   force =     0.00000000    0.00000000   -0.00000000
     atom   15 type  1   force =     0.00000000    0.00000000   -0.00000000
     atom   16 type  1   force =    -0.00000000   -0.00000000   -0.00000000
     atom   17 type  1   force =     0.00000000    0.00000000    0.00000000
     atom   18 type  1   force =     0.00000000    0.00000000    0.00000000
     atom   19 type  1   force =     0.00000000    0.00000000    0.00000000
     atom   20 type  1   force =     0.00000000    0.00000000    0.00000000
     The SCF correction term to forces
     atom    1 type  1   force =     0.00000000    0.00000000    0.00000000
     atom    2 type  1   force =     0.00000000    0.00000000    0.00000000
     atom    3 type  1   force =     0.00000000    0.00000000    0.00000000
     atom    4 type  1   force =     0.00000000    0.00000000    0.00000000
     atom    5 type  1   force =     0.00000000    0.00000000    0.00000000
     atom    6 type  1   force =     0.00000000    0.00000000    0.00000000
     atom    7 type  1   force =     0.00000000    0.00000000    0.00000000
     atom    8 type  1   force =     0.00000000    0.00000000    0.00000000
     atom    9 type  1   force =     0.00000000    0.00000000    0.00000000
     atom   10 type  1   force =     0.00000000    0.00000000    0.00000000
     atom   11 type  1   force =     0.00000000    0.00000000    0.00000000
     atom   12 type  1   force =     0.00000000    0.00000000    0.00000000
     atom   13 type  1   force =     0.00000216   -0.00000204    0.00013412
     atom   14 type  1   force =    -0.00000223    0.00000209    0.00013410
     atom   15 type  1   force =     0.00000273    0.00000444    0.00013235
     atom   16 type  1   force =    -0.00000266   -0.00000448    0.00013237
     atom   17 type  1   force =    -0.00000002   -0.00000013    0.00010457
     atom   18 type  1   force =     0.00000002    0.00000013    0.00010016
     atom   19 type  1   force =     0.00000002   -0.00000016    0.00009858
     atom   20 type  1   force =    -0.00000002    0.00000016    0.00010307

     Total force =     0.000075     Total SCF correction =     0.000335
     SCF correction compared to forces is large: reduce conv_thr to get better values

     entering subroutine stress ...

     negative rho (up, down):  0.593E-04 0.667E-03
          total   stress  (Ry/bohr**3)                   (kbar)     P=  -11.06
  -0.00008394  -0.00003704   0.00000000        -12.35     -5.45      0.00
  -0.00003704  -0.00011013   0.00000000         -5.45    -16.20      0.00
   0.00000000   0.00000000  -0.00003156          0.00      0.00     -4.64

     kinetic stress (kbar)  39751.00      1.67      0.00
                                1.67  39752.17      0.00
                                0.00      0.00  39570.43

     local   stress (kbar)**********    805.76      0.00
                              805.76**********      0.00
                                0.00      0.001334706.50

     nonloc. stress (kbar) -31050.95     10.97      0.00
                               10.97 -31043.19      0.00
                                0.00      0.00 -30885.34

     hartree stress (kbar) 664952.73   -300.63      0.00
                             -300.63 664740.15     -0.00
                                0.00     -0.00-623458.46

     exc-cor stress (kbar)  -1266.89     -0.63      0.00
                               -0.63  -1267.34      0.00
                                0.00      0.00  -1277.42

     corecor stress (kbar)  -8173.87     -0.18     -0.00
                               -0.18  -8174.00     -0.00
                               -0.00     -0.00  -8172.48

     ewald   stress (kbar) 602742.36   -522.40     -0.00
                             -522.40 602372.97     -0.00
                               -0.00     -0.00-710487.86

     hubbard stress (kbar)     -0.00      0.00      0.00
                                0.00     -0.00      0.00
                                0.00      0.00     -0.00

     london  stress (kbar)      0.00      0.00      0.00
                                0.00      0.00      0.00
                                0.00      0.00      0.00

     dft-nl  stress (kbar)      0.00      0.00      0.00
                                0.00      0.00      0.00
                                0.00      0.00      0.00

     BFGS Geometry Optimization

     bfgs converged in   1 scf cycles and   0 bfgs steps
     (criteria: energy < 0.10E-04, force < 0.10E-03)

     End of BFGS Geometry Optimization

     Final energy   =   -6584.8622225084 Ry
Begin final coordinates

ATOMIC_POSITIONS (angstrom)
Fe       0.000000000   0.000000000  -4.005768401    0   0   0
Fe      -0.817674051   2.312731465  -4.005768401    0   0   0
Fe       2.453022152   0.000000000  -4.005768401    0   0   0
Fe      -3.270696203   2.312731465  -4.005768401    0   0   0
Fe       0.817674051   1.156365732  -2.002884200    0   0   0
Fe      -0.817674051  -1.156365732  -2.002884200    0   0   0
Fe       1.635348102  -1.156365732  -2.002884200    0   0   0
Fe      -1.635348102   1.156365732  -2.002884200    0   0   0
Fe       0.000000000   0.000000000   0.000000000    0   0   0
Fe      -0.817674051   2.312731465   0.000000000    0   0   0
Fe       2.453022152   0.000000000   0.000000000    0   0   0
Fe      -3.270696203   2.312731465   0.000000000    0   0   0
Fe       0.817674624   1.156366202   1.980425778
Fe      -0.817674624  -1.156366202   1.980425778
Fe       1.635348516  -1.156366427   1.980435189
Fe      -1.635348516   1.156366427   1.980435189
Fe       0.000000000   0.000000000   3.973347245
Fe      -0.817674051   2.312731465   3.973352017
Fe       2.453022152   0.000000000   3.973352385
Fe      -3.270696203   2.312731465   3.973348614
End final coordinates

     Writing output data file Fe_110_2x2_H2S_top_25ML.save

     General routines

     Parallel routines
     Hubbard U routines

     PAW routines

   This run was terminated on:   3:56:18   5Aug2015

   JOB DONE.
Application 16683279 resources: utime ~109978s, stime ~3168s, Rss ~535776, inblocks ~4812189400, outblocks ~766654625