     Program PWSCF v.5.0.2 (svn rev. 9656) starts on 12Dec2015 at  4:53:11

     Current dimensions of program PWSCF are:
     Max number of different atomic species (ntypx) = 10
     Max number of k-points (npk) =  40000
     Max angular momentum in pseudopotentials (lmaxx) =  3
     Reading input from Fe_100_2x2_H2S_top_25ML_scf.in
Warning: card  &IONS ignored
Warning: card  / ignored
Warning: card  &CELL ignored
Warning: card    PRESS=0.0 ignored
Warning: card    PRESS_CONV_THR=0.1 ignored
Warning: card  / ignored

     IMPORTANT: XC functional enforced from input :
     Exchange-correlation      = PBE ( 1 4 3 4 0)
     EXX-fraction              =        0.00
     Any further DFT definition will be discarded
     Please, verify this is what you really want

               file Fe.pbe-spn-kjpaw_psl.0.2.1.UPF: wavefunction(s)  3D renormalized
               file S.pbe-n-kjpaw_psl.0.1.UPF: wavefunction(s)  3P renormalized
               file H.pbe-kjpaw_psl.0.1.upf: wavefunction(s)  1S renormalized

   Task Groups are in USE
   groups and procs/group :     2    6

     bravais-lattice index     =            0
     lattice parameter (alat)  =       1.8897  a.u.
     unit-cell volume          =    3898.2644 (a.u.)^3
     number of atoms/cell      =           23
     number of atomic types    =            3
     number of electrons       =       328.00
     number of Kohn-Sham states=          197
     kinetic-energy cutoff     =      95.0000  Ry
     charge density cutoff     =     800.0000  Ry
     convergence threshold     =      1.0E-08
     mixing beta               =       0.5000
     number of iterations used =            8  local-TF  mixing
     Exchange-correlation      = PBE ( 1 4 3 4 0)
     EXX-fraction              =        0.00

     celldm(1)=   1.889727  celldm(2)=   0.000000  celldm(3)=   0.000000
     celldm(4)=   0.000000  celldm(5)=   0.000000  celldm(6)=   0.000000

     crystal axes: (cart. coord. in units of alat)
               a(1) = (   5.665012   0.000000   0.000000 )
               a(2) = (   0.000000   5.665012   0.000000 )
               a(3) = (   0.000000   0.000000  18.000000 )

     reciprocal axes: (cart. coord. in units 2 pi/alat)
               b(1) = (  0.176522 -0.000000  0.000000 )
               b(2) = (  0.000000  0.176522  0.000000 )
               b(3) = (  0.000000  0.000000  0.055556 )

     PseudoPot. # 1 for Fe read from file:
     /work/e05/e05/ablar/QE_PSEUDO/Fe.pbe-spn-kjpaw_psl.0.2.1.UPF
     MD5 check sum: a0a08122d52b112de96d1da1d7dd020f
     Pseudo is Projector augmented-wave + core cor, Zval = 16.0
     Generated using "atomic" code by A. Dal Corso  v.5.0.2 svn rev. 9415
     Shape of augmentation charge: PSQ
     Using radial grid of 1191 points,  6 beta functions with:
                l(1) =   0
                l(2) =   0
                l(3) =   1
                l(4) =   1
                l(5) =   2
                l(6) =   2
     Q(r) pseudized with 0 coefficients

     PseudoPot. # 2 for  S read from file:
     /work/e05/e05/ablar/QE_PSEUDO/S.pbe-n-kjpaw_psl.0.1.UPF
     MD5 check sum: 4d0aa7498161b95d6b336a838fdb998f
     Pseudo is Projector augmented-wave + core cor, Zval =  6.0
     Generated using "atomic" code by A. Dal Corso  v.5.0.2 svn rev. 9415
     Shape of augmentation charge: PSQ
     Using radial grid of 1151 points,  4 beta functions with:
                l(1) =   0
                l(2) =   0
                l(3) =   1
                l(4) =   1
     Q(r) pseudized with 0 coefficients

     PseudoPot. # 3 for  H read from file:
     /work/e05/e05/ablar/QE_PSEUDO/H.pbe-kjpaw_psl.0.1.upf
     MD5 check sum: 94e484f906d9e9773b2f6e52662335b2
     Pseudo is Projector augmented-wave, Zval =  1.0
     Generated using "atomic" code by A. Dal Corso  v.5.0.99 svn rev. 10869
     Shape of augmentation charge: PSQ
     Using radial grid of  929 points,  2 beta functions with:
                l(1) =   0
                l(2) =   0
     Q(r) pseudized with 0 coefficients

     atomic species   valence    mass     pseudopotential
        Fe            16.00    55.85000     Fe( 1.00)
        S              6.00    32.00000      S( 1.00)
        H              1.00     1.00000      H( 1.00)

     Starting magnetic structure
     atomic species   magnetization
        Fe           0.600
        S            0.000
        H            0.000

     Simplified LDA+U calculation (l_max = 2) with parameters (eV):
     atomic species    L          U    alpha       J0     beta
        Fe             2     0.0000   0.0000   0.0000   0.0000

     No symmetry found

                                    s                        frac. trans.

      isym =  1     identity

 cryst.   s( 1) = (     1          0          0      )
                  (     0          1          0      )
                  (     0          0          1      )

 cart.    s( 1) = (  1.0000000  0.0000000  0.0000000 )
                  (  0.0000000  1.0000000  0.0000000 )
                  (  0.0000000  0.0000000  1.0000000 )

     point group C_1 (1)
     there are  1 classes
     the character table:

       E
A      1.00

     the symmetry operations in each class:
     E        1

   Cartesian axes

     site n.     atom                  positions (alat units)
         1           Fe  tau(   1) = (   0.0000000   0.0000000  -2.8325049  )
         2           Fe  tau(   2) = (   0.0000000   2.8325049  -2.8325049  )
         3           Fe  tau(   3) = (   2.8325049   0.0000000  -2.8325049  )
         4           Fe  tau(   4) = (   2.8325049   2.8325049  -2.8325049  )
         5           Fe  tau(   5) = (   1.4162524   1.4162524  -1.4162524  )
         6           Fe  tau(   6) = (   1.4162524  -1.4162524  -1.4162524  )
         7           Fe  tau(   7) = (  -1.4162524   1.4162524  -1.4162524  )
         8           Fe  tau(   8) = (  -1.4162524  -1.4162524  -1.4162524  )
         9           Fe  tau(   9) = (   0.0000000   0.0000000   0.0000000  )
        10           Fe  tau(  10) = (   0.0000000   2.8325049   0.0000000  )
        11           Fe  tau(  11) = (   2.8325049   0.0000000   0.0000000  )
        12           Fe  tau(  12) = (   2.8325049   2.8325049   0.0000000  )
        13           Fe  tau(  13) = (   1.4086276   1.4077545   1.4269096  )
        14           Fe  tau(  14) = (   1.4083429  -1.4074402   1.4274642  )
        15           Fe  tau(  15) = (  -1.4075682   1.4062319   1.4334032  )
        16           Fe  tau(  16) = (  -1.4070754  -1.4053587   1.4341288  )
        17           Fe  tau(  17) = (   0.0273854   0.0027811   2.9301422  )
        18           Fe  tau(  18) = (   0.0046219   2.8305546   2.8105990  )
        19           Fe  tau(  19) = (   2.8133480   0.0005525   2.8193844  )
        20           Fe  tau(  20) = (   2.8266427   2.8329548   2.7999423  )
        21           S   tau(  21) = (  -0.5560839  -0.0108837   5.2982000  )
        22           H   tau(  22) = (   0.1827472   0.9258079   5.9509606  )
        23           H   tau(  23) = (   0.1167524  -1.0174198   5.9163249  )

   Crystallographic axes

     site n.     atom                  positions (cryst. coord.)
         1           Fe  tau(   1) = (  0.0000000  0.0000000 -0.1573614  )
         2           Fe  tau(   2) = ( -0.0000000  0.4999998 -0.1573614  )
         3           Fe  tau(   3) = (  0.4999998  0.0000000 -0.1573614  )
         4           Fe  tau(   4) = (  0.4999998  0.4999998 -0.1573614  )
         5           Fe  tau(   5) = (  0.2499999  0.2499999 -0.0786807  )
         6           Fe  tau(   6) = (  0.2499999 -0.2499999 -0.0786807  )
         7           Fe  tau(   7) = ( -0.2499999  0.2499999 -0.0786807  )
         8           Fe  tau(   8) = ( -0.2499999 -0.2499999 -0.0786807  )
         9           Fe  tau(   9) = (  0.0000000  0.0000000  0.0000000  )
        10           Fe  tau(  10) = ( -0.0000000  0.4999998  0.0000000  )
        11           Fe  tau(  11) = (  0.4999998  0.0000000  0.0000000  )
        12           Fe  tau(  12) = (  0.4999998  0.4999998  0.0000000  )
        13           Fe  tau(  13) = (  0.2486540  0.2484998  0.0792728  )
        14           Fe  tau(  14) = (  0.2486037 -0.2484443  0.0793036  )
        15           Fe  tau(  15) = ( -0.2484669  0.2482311  0.0796335  )
        16           Fe  tau(  16) = ( -0.2483800 -0.2480769  0.0796738  )
        17           Fe  tau(  17) = (  0.0048341  0.0004909  0.1627857  )
        18           Fe  tau(  18) = (  0.0008159  0.4996555  0.1561444  )
        19           Fe  tau(  19) = (  0.4966182  0.0000975  0.1566325  )
        20           Fe  tau(  20) = (  0.4989650  0.5000792  0.1555523  )
        21           S   tau(  21) = ( -0.0981611 -0.0019212  0.2943444  )
        22           H   tau(  22) = (  0.0322589  0.1634256  0.3306089  )
        23           H   tau(  23) = (  0.0206094 -0.1795971  0.3286847  )

     number of k points=    20  Marzari-Vanderbilt smearing, width (Ry)=  0.0400
                       cart. coord. in units 2pi/alat
        k(    1) = (   0.0000000   0.0000000   0.0000000), wk =   0.0625000
        k(    2) = (   0.0000000   0.0441305   0.0000000), wk =   0.1250000
        k(    3) = (   0.0000000  -0.0882611   0.0000000), wk =   0.0625000
        k(    4) = (   0.0441305   0.0441305   0.0000000), wk =   0.1250000
        k(    5) = (   0.0441305  -0.0882611   0.0000000), wk =   0.1250000
        k(    6) = (  -0.0882611  -0.0882611   0.0000000), wk =   0.0625000
        k(    7) = (   0.0441305  -0.0000000   0.0000000), wk =   0.1250000
        k(    8) = (  -0.0882611   0.0000000   0.0000000), wk =   0.0625000
        k(    9) = (  -0.0441305   0.0441305   0.0000000), wk =   0.1250000
        k(   10) = (  -0.0882611   0.0441305   0.0000000), wk =   0.1250000
        k(   11) = (   0.0000000   0.0000000   0.0000000), wk =   0.0625000
        k(   12) = (   0.0000000   0.0441305   0.0000000), wk =   0.1250000
        k(   13) = (   0.0000000  -0.0882611   0.0000000), wk =   0.0625000
        k(   14) = (   0.0441305   0.0441305   0.0000000), wk =   0.1250000
        k(   15) = (   0.0441305  -0.0882611   0.0000000), wk =   0.1250000
        k(   16) = (  -0.0882611  -0.0882611   0.0000000), wk =   0.0625000
        k(   17) = (   0.0441305  -0.0000000   0.0000000), wk =   0.1250000
        k(   18) = (  -0.0882611   0.0000000   0.0000000), wk =   0.0625000
        k(   19) = (  -0.0441305   0.0441305   0.0000000), wk =   0.1250000
        k(   20) = (  -0.0882611   0.0441305   0.0000000), wk =   0.1250000

                       cryst. coord.
        k(    1) = (   0.0000000   0.0000000   0.0000000), wk =   0.0625000
        k(    2) = (   0.0000000   0.2500000   0.0000000), wk =   0.1250000
        k(    3) = (   0.0000000  -0.5000000   0.0000000), wk =   0.0625000
        k(    4) = (   0.2500000   0.2500000   0.0000000), wk =   0.1250000
        k(    5) = (   0.2500000  -0.5000000   0.0000000), wk =   0.1250000
        k(    6) = (  -0.5000000  -0.5000000   0.0000000), wk =   0.0625000
        k(    7) = (   0.2500000   0.0000000   0.0000000), wk =   0.1250000
        k(    8) = (  -0.5000000  -0.0000000   0.0000000), wk =   0.0625000
[...]
     1.0303   1.0329   1.0415   1.0434   1.0458   1.0507   1.0532   1.0539
     1.0763   1.0775   1.0789   1.0794   1.0714   1.0704   0.8060   0.7433
     0.3449   0.3029   0.2812   0.2321   0.1690   0.1559   0.1382   0.0995
     0.0878   0.0781   0.0703   0.0435   0.0336   0.0296   0.0275   0.0226
     0.0014   0.0010   0.0004   0.0004   0.0002   0.0001   0.0001   0.0000
     0.0000   0.0000   0.0000   0.0000   0.0000   0.0000   0.0000   0.0000
     0.0000   0.0000   0.0000   0.0000   0.0000   0.0000   0.0000   0.0000
     0.0000   0.0000   0.0000   0.0000   0.0000   0.0000   0.0000   0.0000
     0.0000   0.0000   0.0000   0.0000   0.0000   0.0000   0.0000   0.0000
     0.0000   0.0000   0.0000   0.0000   0.0000

     the Fermi energy is     5.7486 ev

!    total energy              =   -6653.34142886 Ry
     Harris-Foulkes estimate   =   -6653.34142887 Ry
     estimated scf accuracy    <          5.7E-09 Ry

     total all-electron energy =    -51711.373268 Ry

     The total energy is the sum of the following terms:

     one-electron contribution =  -25408.17933593 Ry
     hartree contribution      =   12770.97953794 Ry
     xc contribution           =    -704.71378419 Ry
     ewald contribution        =    8255.61690597 Ry
     Hubbard energy            =       0.00000000 Ry
     one-center paw contrib.   =   -1567.13904003 Ry
     smearing contrib. (-TS)   =       0.09428738 Ry

     total magnetization       =    51.70 Bohr mag/cell
     absolute magnetization    =    53.93 Bohr mag/cell

     convergence has been achieved in  28 iterations

     Forces acting on atoms (Ry/au):

     negative rho (up, down):  0.184E-05 0.124E-02
     atom    1 type  1   force =     0.00017333    0.00000899    0.00347272
     atom    2 type  1   force =     0.00009422   -0.00000704    0.00354642
     atom    3 type  1   force =    -0.00012051    0.00000978    0.00348030
     atom    4 type  1   force =    -0.00007120   -0.00000865    0.00353715
     atom    5 type  1   force =    -0.00016170   -0.00020983   -0.00733501
     atom    6 type  1   force =    -0.00016343    0.00020388   -0.00729121
     atom    7 type  1   force =     0.00023204   -0.00033747   -0.00724163
     atom    8 type  1   force =     0.00023953    0.00034576   -0.00722835
     atom    9 type  1   force =    -0.00031256    0.00002135    0.00467673
     atom   10 type  1   force =    -0.00053704    0.00005730    0.00395573
     atom   11 type  1   force =     0.00027459   -0.00004167    0.00401812
     atom   12 type  1   force =     0.00046150    0.00012525    0.00231516
     atom   13 type  1   force =    -0.00004481    0.00001344    0.00002645
     atom   14 type  1   force =    -0.00003405   -0.00003791    0.00001124
     atom   15 type  1   force =    -0.00001705   -0.00002786   -0.00002805
     atom   16 type  1   force =    -0.00002894   -0.00006011    0.00002798
     atom   17 type  1   force =     0.00000370   -0.00001739    0.00003239
     atom   18 type  1   force =     0.00000471   -0.00001537   -0.00001663
     atom   19 type  1   force =    -0.00002574   -0.00002797   -0.00000501
     atom   20 type  1   force =     0.00001647   -0.00001736   -0.00005284
     atom   21 type  2   force =     0.00002412   -0.00001070    0.00004634
     atom   22 type  3   force =    -0.00000633    0.00002434    0.00002475
     atom   23 type  3   force =    -0.00000088    0.00000926    0.00002728
     The non-local contrib.  to forces
     atom    1 type  1   force =    -0.00065255   -0.00005368   -0.38408891
     atom    2 type  1   force =    -0.00000586    0.00005770   -0.38599487
     atom    3 type  1   force =     0.00087220   -0.00001687   -0.38502619
     atom    4 type  1   force =    -0.00013654   -0.00000546   -0.38809913
     atom    5 type  1   force =     0.00116437    0.00077145   -0.03527960
     atom    6 type  1   force =     0.00124336   -0.00078327   -0.03521628
     atom    7 type  1   force =    -0.00107548    0.00214542   -0.03494470
     atom    8 type  1   force =    -0.00117793   -0.00216021   -0.03494197
     atom    9 type  1   force =    -0.00022223   -0.00005212    0.00640684
     atom   10 type  1   force =    -0.00104042   -0.00010176   -0.00045938
     atom   11 type  1   force =    -0.00108853   -0.00002646    0.00123688
     atom   12 type  1   force =     0.00046168   -0.00004662   -0.00655245
     atom   13 type  1   force =     0.01660849    0.01727383    0.02288888
     atom   14 type  1   force =     0.01679488   -0.01708979    0.02281622
     atom   15 type  1   force =    -0.01544513    0.01677197    0.02564245
     atom   16 type  1   force =    -0.01587475   -0.01659198    0.02588393
     atom   17 type  1   force =    -0.02937783   -0.00122244    0.36746472
     atom   18 type  1   force =    -0.00285929    0.00259188    0.37046169
     atom   19 type  1   force =     0.03320965    0.00033766    0.40755060
     atom   20 type  1   force =     0.00522541    0.00008536    0.35620053
     atom   21 type  2   force =     0.24164348   -0.01001519    0.10223492
     atom   22 type  3   force =    -0.03143770   -0.03998186   -0.02719597
     atom   23 type  3   force =    -0.02866694    0.04304320   -0.02577400
     The ionic contribution  to forces
     atom    1 type  1   force =    -0.01200279   -0.00118721 -260.13157375
     atom    2 type  1   force =    -0.01207184    0.00122333 -260.12079710
     atom    3 type  1   force =     0.01205649   -0.00125234 -260.12256388
     atom    4 type  1   force =     0.01212627    0.00128736 -260.10335138
     atom    5 type  1   force =     0.03700185    0.04169855 -140.17184594
     atom    6 type  1   force =     0.03754799   -0.04206953 -140.16033144
     atom    7 type  1   force =    -0.03798453    0.04220249 -140.04829533
     atom    8 type  1   force =    -0.03868468   -0.04299607 -140.03547264
     atom    9 type  1   force =    -0.23002828   -0.01750472   -5.44591409
     atom   10 type  1   force =    -0.22594839    0.02496350   -5.80398492
     atom   11 type  1   force =     0.24323221   -0.02158271   -5.79509061
     atom   12 type  1   force =     0.24030690    0.02790130   -5.42112711
     atom   13 type  1   force =    -0.01794052    0.13851544  128.74192224
     atom   14 type  1   force =    -0.06848236   -0.13828201  128.84665090
     atom   15 type  1   force =    -0.00377244   -0.23671562  129.75989950
     atom   16 type  1   force =     0.04170256    0.22419466  129.86836724
     atom   17 type  1   force =     0.18674706   -0.07742107  247.52403662
     atom   18 type  1   force =    -0.15263807    0.10628472  248.64314930
     atom   19 type  1   force =     0.47563718   -0.01892280  248.76607637
     atom   20 type  1   force =     0.21457810    0.01607820  249.54248684
     atom   21 type  2   force =    -2.48457059    0.06309153   85.82569534
     atom   22 type  3   force =     0.93843294    1.32514340   12.88374659
     atom   23 type  3   force =     0.84475495   -1.41465040   12.95831726
     The local contribution  to forces
     atom    1 type  1   force =     0.01282282    0.00125079  260.53185537
     atom    2 type  1   force =     0.01222433   -0.00128709  260.52300651
     atom    3 type  1   force =    -0.01300300    0.00128290  260.52376558
     atom    4 type  1   force =    -0.01205744   -0.00129058  260.50758197
     atom    5 type  1   force =    -0.03831389   -0.04260661  140.20005486
     atom    6 type  1   force =    -0.03893966    0.04297604  140.18852371
     atom    7 type  1   force =     0.03922541   -0.04459090  140.07631060
     atom    8 type  1   force =     0.04003820    0.04540500  140.06350049
     atom    9 type  1   force =     0.22995554    0.01757473    5.44396397
     atom   10 type  1   force =     0.22637455   -0.02480071    5.80808009
     atom   11 type  1   force =    -0.24179988    0.02156001    5.79748483
     atom   12 type  1   force =    -0.24037279   -0.02774419    5.42962189
     atom   13 type  1   force =     0.00140217   -0.15559245 -128.76489103
     atom   14 type  1   force =     0.05178790    0.15513931 -128.86957431
     atom   15 type  1   force =     0.01888583    0.22024792 -129.78597290
     atom   16 type  1   force =    -0.02619389   -0.20799855 -129.89465659
     atom   17 type  1   force =    -0.15773122    0.07869761 -247.90201873
     atom   18 type  1   force =     0.15546091   -0.10892445 -249.02596182
     atom   19 type  1   force =    -0.50904123    0.01853556 -249.18615061
     atom   20 type  1   force =    -0.21970443   -0.01616343 -249.91128979
     atom   21 type  2   force =     2.25120349   -0.05340808  -85.92542302
     atom   22 type  3   force =    -0.90700260   -1.28513690  -12.85652957
     atom   23 type  3   force =    -0.81608998    1.37161546  -12.93251979
     The core correction contribution to forces
     atom    1 type  1   force =     0.00000481   -0.00000116   -0.01285364
     atom    2 type  1   force =    -0.00005346   -0.00000171   -0.01280789
     atom    3 type  1   force =    -0.00004663   -0.00000422   -0.01283689
     atom    4 type  1   force =    -0.00000385   -0.00000066   -0.01273468
     atom    5 type  1   force =    -0.00002259   -0.00007293   -0.00041341
     atom    6 type  1   force =    -0.00002393    0.00008013   -0.00041636
     atom    7 type  1   force =     0.00007284   -0.00009449   -0.00046102
     atom    8 type  1   force =     0.00007026    0.00009662   -0.00046284
     atom    9 type  1   force =    -0.00001956    0.00000289    0.00011153
     atom   10 type  1   force =     0.00007539   -0.00000385    0.00021235
     atom   11 type  1   force =    -0.00006914    0.00000668    0.00027592
     atom   12 type  1   force =     0.00006592    0.00001480    0.00026753
     atom   13 type  1   force =    -0.00012485   -0.00017707    0.00008976
     atom   14 type  1   force =    -0.00014432    0.00018779    0.00010190
     atom   15 type  1   force =     0.00032220   -0.00032530    0.00038494
     atom   16 type  1   force =     0.00034495    0.00032810    0.00041484
     atom   17 type  1   force =     0.00036504   -0.00007132    0.01058709
     atom   18 type  1   force =     0.00003978    0.00003220    0.01239137
     atom   19 type  1   force =     0.00016618    0.00002115    0.01257600
     atom   20 type  1   force =    -0.00008288   -0.00001759    0.01260795
     atom   21 type  2   force =    -0.00825919    0.00032091   -0.00243659
     atom   22 type  3   force =     0.00000000    0.00000000    0.00000000
     atom   23 type  3   force =     0.00000000    0.00000000    0.00000000
     The Hubbard contrib.    to forces
     atom    1 type  1   force =     0.00000000    0.00000000   -0.00000000
     atom    2 type  1   force =    -0.00000000   -0.00000000   -0.00000000
     atom    3 type  1   force =    -0.00000000   -0.00000000   -0.00000000
     atom    4 type  1   force =     0.00000000    0.00000000   -0.00000000
     atom    5 type  1   force =    -0.00000000   -0.00000000   -0.00000000
     atom    6 type  1   force =    -0.00000000    0.00000000    0.00000000
     atom    7 type  1   force =     0.00000000   -0.00000000    0.00000000
     atom    8 type  1   force =     0.00000000    0.00000000    0.00000000
     atom    9 type  1   force =     0.00000000   -0.00000000   -0.00000000
     atom   10 type  1   force =     0.00000000   -0.00000000   -0.00000000
     atom   11 type  1   force =    -0.00000000    0.00000000   -0.00000000
     atom   12 type  1   force =    -0.00000000   -0.00000000   -0.00000000
     atom   13 type  1   force =     0.00000000    0.00000000    0.00000000
     atom   14 type  1   force =     0.00000000   -0.00000000    0.00000000
     atom   15 type  1   force =    -0.00000000    0.00000000    0.00000000
     atom   16 type  1   force =    -0.00000000   -0.00000000    0.00000000
     atom   17 type  1   force =     0.00000000   -0.00000000    0.00000000
     atom   18 type  1   force =    -0.00000000    0.00000000    0.00000000
     atom   19 type  1   force =     0.00000000    0.00000000    0.00000000
     atom   20 type  1   force =     0.00000000    0.00000000    0.00000000
     atom   21 type  2   force =    -0.00000000    0.00000000    0.00000000
     atom   22 type  3   force =    -0.00000000    0.00000000    0.00000000
     atom   23 type  3   force =    -0.00000000   -0.00000000    0.00000000
     The SCF correction term to forces
     atom    1 type  1   force =     0.00000000    0.00000000    0.00000000
     atom    2 type  1   force =     0.00000000    0.00000000    0.00000000
     atom    3 type  1   force =     0.00000000    0.00000000    0.00000000
     atom    4 type  1   force =     0.00000000    0.00000000    0.00000000
     atom    5 type  1   force =     0.00000000    0.00000000    0.00000000
     atom    6 type  1   force =     0.00000000    0.00000000    0.00000000
     atom    7 type  1   force =     0.00000000    0.00000000    0.00000000
     atom    8 type  1   force =     0.00000000    0.00000000    0.00000000
     atom    9 type  1   force =     0.00000000    0.00000000    0.00000000
     atom   10 type  1   force =     0.00000000    0.00000000    0.00000000
     atom   11 type  1   force =     0.00000000    0.00000000    0.00000000
     atom   12 type  1   force =     0.00000000    0.00000000    0.00000000
     atom   13 type  1   force =     0.00000904   -0.00000663    0.00000416
     atom   14 type  1   force =     0.00000900    0.00000646    0.00000409
     atom   15 type  1   force =    -0.00000836   -0.00000717    0.00000552
     atom   16 type  1   force =    -0.00000865    0.00000732    0.00000612
     atom   17 type  1   force =    -0.00000021   -0.00000050   -0.00004975
     atom   18 type  1   force =     0.00000053   -0.00000005   -0.00006962
     atom   19 type  1   force =     0.00000162    0.00000012   -0.00006982
     atom   20 type  1   force =    -0.00000057   -0.00000025   -0.00007081
     atom   21 type  2   force =     0.00000607   -0.00000020   -0.00003675
     atom   22 type  3   force =     0.00000019   -0.00000064   -0.00000874
     atom   23 type  3   force =     0.00000024    0.00000066   -0.00000864

     Total force =     0.000156     Total SCF correction =     0.000139
     SCF correction compared to forces is large: reduce conv_thr to get better values

     entering subroutine stress ...

     negative rho (up, down):  0.184E-05 0.124E-02
          total   stress  (Ry/bohr**3)                   (kbar)     P=  -14.43
  -0.00015059  -0.00000008  -0.00000002        -22.15     -0.01     -0.00
  -0.00000008  -0.00014559  -0.00000010         -0.01    -21.42     -0.01
  -0.00000002  -0.00000010   0.00000191         -0.00     -0.01      0.28

     kinetic stress (kbar)  32051.31     -0.70    -23.20
                               -0.70  32023.09      0.02
                              -23.20      0.02  31949.23

     local   stress (kbar)-842567.61     -2.49    113.70
                               -2.49-842592.36     11.36
                              113.70     11.36 892415.58

     nonloc. stress (kbar) -24595.05     -0.08      1.20
                               -0.08 -24598.29      0.13
                                1.20      0.13 -24525.79

     hartree stress (kbar) 446674.47      0.87    -50.18
                                0.87 446678.62     -4.25
                              -50.18     -4.25-411426.92

     exc-cor stress (kbar)  -1004.81      0.00      0.10
                                0.00  -1004.64     -0.01
                                0.10     -0.01  -1009.74

     corecor stress (kbar)  -6682.07      0.01      0.27
                                0.01  -6681.70      0.00
                                0.27      0.00  -6680.89

     ewald   stress (kbar) 396101.60      2.37    -41.90
                                2.37 396153.86     -7.27
                              -41.90     -7.27-480721.19

     hubbard stress (kbar)     -0.00     -0.00      0.00
                               -0.00     -0.00     -0.00
                                0.00     -0.00     -0.00

     london  stress (kbar)      0.00      0.00      0.00
                                0.00      0.00      0.00
                                0.00      0.00      0.00

     dft-nl  stress (kbar)      0.00      0.00      0.00
                                0.00      0.00      0.00
                                0.00      0.00      0.00

     Writing output data file Fe_100_2x2_H2S_top_25ML.save

     General routines

     Parallel routines
     Hubbard U routines

     PAW routines

   This run was terminated on:   5:42: 8  12Dec2015

   JOB DONE.
Application 19354489 resources: utime ~136306s, stime ~4072s, Rss ~620900, inblocks ~6078461139, outblocks ~969152505